*SPEF "ieee 1481-1999"
*DESIGN "ZeroToFiveCounter"
*DATE "19:36:10 Wednesday May 21, 2025"
*VENDOR "The OpenROAD Project"
*PROGRAM "OpenROAD"
*VERSION "b16bda7e82721d10566ff7e2b68f1ff0be9f9e38"
*DESIGN_FLOW "NAME_SCOPE LOCAL" "PIN_CAP NONE"
*DIVIDER /
*DELIMITER :
*BUS_DELIMITER []
*T_UNIT 1 NS
*C_UNIT 1 PF
*R_UNIT 1 OHM
*L_UNIT 1 HENRY

*NAME_MAP
*3 net10
*4 net11
*5 net12
*6 net13
*7 net14
*8 net15
*9 net16
*10 net9
*11 clk
*12 rst
*13 seg[0]
*14 seg[1]
*15 seg[2]
*16 seg[3]
*17 seg[4]
*18 seg[5]
*19 seg[6]
*20 _000_
*21 _001_
*22 _002_
*23 _003_
*24 _004_
*25 _005_
*26 _006_
*27 _007_
*28 _008_
*29 _009_
*30 _010_
*31 _011_
*32 _012_
*33 _013_
*34 _014_
*35 _015_
*36 _016_
*37 _017_
*38 _018_
*39 _019_
*40 _020_
*41 _021_
*42 _022_
*43 _023_
*44 _024_
*45 _025_
*46 _026_
*47 _027_
*48 _028_
*49 _029_
*50 _030_
*51 _031_
*52 _032_
*53 _033_
*54 _034_
*55 _035_
*56 _036_
*57 _037_
*58 _038_
*59 _039_
*60 _040_
*61 _041_
*62 _042_
*63 _043_
*64 _044_
*65 _045_
*66 _046_
*67 _047_
*68 _048_
*69 _049_
*70 _050_
*71 _051_
*72 _052_
*73 _053_
*74 _054_
*75 _055_
*76 _056_
*77 _057_
*78 _058_
*79 _059_
*80 _060_
*81 _061_
*82 _062_
*83 _063_
*84 _064_
*85 _065_
*86 _066_
*87 _067_
*88 _068_
*89 _069_
*90 _070_
*91 _071_
*92 _072_
*93 _073_
*94 _074_
*95 _075_
*96 _076_
*97 _077_
*98 _078_
*99 _079_
*100 _080_
*101 _081_
*102 _082_
*103 _083_
*104 _084_
*105 _085_
*106 _086_
*107 _087_
*108 _088_
*109 _089_
*110 _090_
*111 _091_
*112 _092_
*113 _093_
*114 _094_
*115 _095_
*116 _096_
*117 _097_
*118 _098_
*119 _099_
*120 _100_
*121 _101_
*122 _102_
*123 _103_
*124 _104_
*125 _105_
*126 _106_
*127 _107_
*128 _108_
*129 _109_
*130 _110_
*131 _111_
*132 _112_
*133 _113_
*134 _114_
*135 _115_
*136 _116_
*137 _117_
*138 _118_
*139 _119_
*140 _120_
*141 _121_
*142 _122_
*143 _123_
*144 _124_
*145 _125_
*146 _126_
*147 _127_
*148 _128_
*149 _129_
*150 _130_
*151 _131_
*152 _132_
*153 _133_
*154 _134_
*155 _135_
*156 _136_
*157 _137_
*158 _138_
*159 _139_
*160 _140_
*161 _141_
*162 _142_
*163 _143_
*164 _144_
*165 _145_
*166 _146_
*167 _147_
*168 _148_
*169 _149_
*170 _150_
*171 _151_
*172 _152_
*173 _153_
*174 _154_
*175 _155_
*176 _156_
*177 _157_
*178 _158_
*179 _159_
*180 _160_
*181 _161_
*182 clknet_0_clk
*183 clknet_2_0__leaf_clk
*184 clknet_2_1__leaf_clk
*185 clknet_2_2__leaf_clk
*186 clknet_2_3__leaf_clk
*187 decoder\.digit\[0\]
*188 decoder\.digit\[1\]
*189 decoder\.digit\[2\]
*190 decoder\.digit\[3\]
*191 net1
*192 net17
*193 net2
*194 net3
*195 net4
*196 net5
*197 net6
*198 net7
*199 net8
*200 one_second_counter\[0\]
*201 one_second_counter\[10\]
*202 one_second_counter\[11\]
*203 one_second_counter\[12\]
*204 one_second_counter\[13\]
*205 one_second_counter\[14\]
*206 one_second_counter\[15\]
*207 one_second_counter\[16\]
*208 one_second_counter\[17\]
*209 one_second_counter\[18\]
*210 one_second_counter\[19\]
*211 one_second_counter\[1\]
*212 one_second_counter\[20\]
*213 one_second_counter\[21\]
*214 one_second_counter\[22\]
*215 one_second_counter\[23\]
*216 one_second_counter\[24\]
*217 one_second_counter\[25\]
*218 one_second_counter\[26\]
*219 one_second_counter\[2\]
*220 one_second_counter\[3\]
*221 one_second_counter\[4\]
*222 one_second_counter\[5\]
*223 one_second_counter\[6\]
*224 one_second_counter\[7\]
*225 one_second_counter\[8\]
*226 one_second_counter\[9\]
*227 one_second_enable
*228 ANTENNA_1
*229 ANTENNA_2
*230 ANTENNA_3
*231 ANTENNA_4
*232 FILLER_0_0_104
*233 FILLER_0_0_116
*234 FILLER_0_0_128
*235 FILLER_0_0_136
*236 FILLER_0_0_141
*237 FILLER_0_0_153
*238 FILLER_0_0_161
*239 FILLER_0_0_167
*240 FILLER_0_0_169
*241 FILLER_0_0_18
*242 FILLER_0_0_181
*243 FILLER_0_0_26
*244 FILLER_0_0_32
*245 FILLER_0_0_6
*246 FILLER_0_0_67
*247 FILLER_0_0_73
*248 FILLER_0_0_82
*249 FILLER_0_0_88
*250 FILLER_0_10_109
*251 FILLER_0_10_134
*252 FILLER_0_10_141
*253 FILLER_0_10_15
*254 FILLER_0_10_153
*255 FILLER_0_10_165
*256 FILLER_0_10_173
*257 FILLER_0_10_178
*258 FILLER_0_10_21
*259 FILLER_0_10_25
*260 FILLER_0_10_3
*261 FILLER_0_10_32
*262 FILLER_0_10_44
*263 FILLER_0_10_56
*264 FILLER_0_10_66
*265 FILLER_0_10_83
*266 FILLER_0_10_85
*267 FILLER_0_10_97
*268 FILLER_0_11_100
*269 FILLER_0_11_113
*270 FILLER_0_11_144
*271 FILLER_0_11_15
*272 FILLER_0_11_150
*273 FILLER_0_11_156
*274 FILLER_0_11_169
*275 FILLER_0_11_181
*276 FILLER_0_11_189
*277 FILLER_0_11_27
*278 FILLER_0_11_3
*279 FILLER_0_11_39
*280 FILLER_0_11_51
*281 FILLER_0_11_55
*282 FILLER_0_11_57
*283 FILLER_0_11_64
*284 FILLER_0_11_76
*285 FILLER_0_11_88
*286 FILLER_0_12_105
*287 FILLER_0_12_117
*288 FILLER_0_12_129
*289 FILLER_0_12_138
*290 FILLER_0_12_141
*291 FILLER_0_12_15
*292 FILLER_0_12_153
*293 FILLER_0_12_157
*294 FILLER_0_12_169
*295 FILLER_0_12_181
*296 FILLER_0_12_189
*297 FILLER_0_12_27
*298 FILLER_0_12_29
*299 FILLER_0_12_3
*300 FILLER_0_12_41
*301 FILLER_0_12_77
*302 FILLER_0_12_83
*303 FILLER_0_13_113
*304 FILLER_0_13_15
*305 FILLER_0_13_162
*306 FILLER_0_13_169
*307 FILLER_0_13_184
*308 FILLER_0_13_27
*309 FILLER_0_13_3
*310 FILLER_0_13_39
*311 FILLER_0_13_51
*312 FILLER_0_13_55
*313 FILLER_0_13_57
*314 FILLER_0_13_69
*315 FILLER_0_13_81
*316 FILLER_0_13_89
*317 FILLER_0_14_109
*318 FILLER_0_14_121
*319 FILLER_0_14_127
*320 FILLER_0_14_146
*321 FILLER_0_14_15
*322 FILLER_0_14_150
*323 FILLER_0_14_162
*324 FILLER_0_14_174
*325 FILLER_0_14_186
*326 FILLER_0_14_27
*327 FILLER_0_14_29
*328 FILLER_0_14_3
*329 FILLER_0_14_41
*330 FILLER_0_14_53
*331 FILLER_0_14_61
*332 FILLER_0_14_71
*333 FILLER_0_14_83
*334 FILLER_0_14_85
*335 FILLER_0_14_97
*336 FILLER_0_15_105
*337 FILLER_0_15_111
*338 FILLER_0_15_121
*339 FILLER_0_15_133
*340 FILLER_0_15_144
*341 FILLER_0_15_15
*342 FILLER_0_15_156
*343 FILLER_0_15_174
*344 FILLER_0_15_186
*345 FILLER_0_15_27
*346 FILLER_0_15_3
*347 FILLER_0_15_39
*348 FILLER_0_15_51
*349 FILLER_0_15_55
*350 FILLER_0_15_57
*351 FILLER_0_15_69
*352 FILLER_0_15_81
*353 FILLER_0_15_93
*354 FILLER_0_16_109
*355 FILLER_0_16_121
*356 FILLER_0_16_133
*357 FILLER_0_16_139
*358 FILLER_0_16_141
*359 FILLER_0_16_15
*360 FILLER_0_16_152
*361 FILLER_0_16_164
*362 FILLER_0_16_176
*363 FILLER_0_16_180
*364 FILLER_0_16_27
*365 FILLER_0_16_29
*366 FILLER_0_16_3
*367 FILLER_0_16_44
*368 FILLER_0_16_56
*369 FILLER_0_16_68
*370 FILLER_0_16_80
*371 FILLER_0_16_85
*372 FILLER_0_16_97
*373 FILLER_0_17_105
*374 FILLER_0_17_111
*375 FILLER_0_17_113
*376 FILLER_0_17_119
*377 FILLER_0_17_127
*378 FILLER_0_17_139
*379 FILLER_0_17_15
*380 FILLER_0_17_151
*381 FILLER_0_17_163
*382 FILLER_0_17_167
*383 FILLER_0_17_169
*384 FILLER_0_17_181
*385 FILLER_0_17_189
*386 FILLER_0_17_21
*387 FILLER_0_17_3
*388 FILLER_0_17_33
*389 FILLER_0_17_41
*390 FILLER_0_17_46
*391 FILLER_0_17_54
*392 FILLER_0_17_57
*393 FILLER_0_17_69
*394 FILLER_0_17_81
*395 FILLER_0_17_93
*396 FILLER_0_18_109
*397 FILLER_0_18_121
*398 FILLER_0_18_133
*399 FILLER_0_18_139
*400 FILLER_0_18_141
*401 FILLER_0_18_15
*402 FILLER_0_18_152
*403 FILLER_0_18_160
*404 FILLER_0_18_188
*405 FILLER_0_18_27
*406 FILLER_0_18_29
*407 FILLER_0_18_3
*408 FILLER_0_18_41
*409 FILLER_0_18_53
*410 FILLER_0_18_60
*411 FILLER_0_18_72
*412 FILLER_0_18_85
*413 FILLER_0_18_97
*414 FILLER_0_19_100
*415 FILLER_0_19_113
*416 FILLER_0_19_121
*417 FILLER_0_19_133
*418 FILLER_0_19_139
*419 FILLER_0_19_15
*420 FILLER_0_19_163
*421 FILLER_0_19_167
*422 FILLER_0_19_169
*423 FILLER_0_19_181
*424 FILLER_0_19_189
*425 FILLER_0_19_23
*426 FILLER_0_19_3
*427 FILLER_0_19_34
*428 FILLER_0_19_46
*429 FILLER_0_19_54
*430 FILLER_0_19_57
*431 FILLER_0_19_88
*432 FILLER_0_1_102
*433 FILLER_0_1_110
*434 FILLER_0_1_113
*435 FILLER_0_1_136
*436 FILLER_0_1_148
*437 FILLER_0_1_15
*438 FILLER_0_1_160
*439 FILLER_0_1_175
*440 FILLER_0_1_183
*441 FILLER_0_1_27
*442 FILLER_0_1_3
*443 FILLER_0_1_54
*444 FILLER_0_1_57
*445 FILLER_0_1_69
*446 FILLER_0_1_81
*447 FILLER_0_1_93
*448 FILLER_0_20_103
*449 FILLER_0_20_124
*450 FILLER_0_20_136
*451 FILLER_0_20_141
*452 FILLER_0_20_149
*453 FILLER_0_20_15
*454 FILLER_0_20_155
*455 FILLER_0_20_180
*456 FILLER_0_20_184
*457 FILLER_0_20_27
*458 FILLER_0_20_29
*459 FILLER_0_20_3
*460 FILLER_0_20_41
*461 FILLER_0_20_53
*462 FILLER_0_20_67
*463 FILLER_0_20_79
*464 FILLER_0_20_83
*465 FILLER_0_20_85
*466 FILLER_0_20_97
*467 FILLER_0_21_105
*468 FILLER_0_21_111
*469 FILLER_0_21_113
*470 FILLER_0_21_121
*471 FILLER_0_21_127
*472 FILLER_0_21_135
*473 FILLER_0_21_141
*474 FILLER_0_21_153
*475 FILLER_0_21_162
*476 FILLER_0_21_169
*477 FILLER_0_21_177
*478 FILLER_0_21_187
*479 FILLER_0_21_3
*480 FILLER_0_21_36
*481 FILLER_0_21_42
*482 FILLER_0_21_46
*483 FILLER_0_21_54
*484 FILLER_0_21_57
*485 FILLER_0_21_69
*486 FILLER_0_21_81
*487 FILLER_0_21_93
*488 FILLER_0_22_100
*489 FILLER_0_22_110
*490 FILLER_0_22_122
*491 FILLER_0_22_131
*492 FILLER_0_22_139
*493 FILLER_0_22_144
*494 FILLER_0_22_15
*495 FILLER_0_22_156
*496 FILLER_0_22_178
*497 FILLER_0_22_27
*498 FILLER_0_22_29
*499 FILLER_0_22_3
*500 FILLER_0_22_41
*501 FILLER_0_22_53
*502 FILLER_0_22_65
*503 FILLER_0_22_75
*504 FILLER_0_22_83
*505 FILLER_0_22_88
*506 FILLER_0_23_113
*507 FILLER_0_23_125
*508 FILLER_0_23_149
*509 FILLER_0_23_15
*510 FILLER_0_23_161
*511 FILLER_0_23_167
*512 FILLER_0_23_169
*513 FILLER_0_23_181
*514 FILLER_0_23_185
*515 FILLER_0_23_27
*516 FILLER_0_23_3
*517 FILLER_0_23_39
*518 FILLER_0_23_51
*519 FILLER_0_23_55
*520 FILLER_0_23_57
*521 FILLER_0_23_69
*522 FILLER_0_23_81
*523 FILLER_0_23_89
*524 FILLER_0_24_108
*525 FILLER_0_24_120
*526 FILLER_0_24_132
*527 FILLER_0_24_141
*528 FILLER_0_24_15
*529 FILLER_0_24_153
*530 FILLER_0_24_165
*531 FILLER_0_24_177
*532 FILLER_0_24_189
*533 FILLER_0_24_27
*534 FILLER_0_24_29
*535 FILLER_0_24_3
*536 FILLER_0_24_35
*537 FILLER_0_24_42
*538 FILLER_0_24_48
*539 FILLER_0_24_52
*540 FILLER_0_24_60
*541 FILLER_0_24_68
*542 FILLER_0_24_76
*543 FILLER_0_24_80
*544 FILLER_0_24_85
*545 FILLER_0_24_96
*546 FILLER_0_25_104
*547 FILLER_0_25_110
*548 FILLER_0_25_113
*549 FILLER_0_25_125
*550 FILLER_0_25_137
*551 FILLER_0_25_141
*552 FILLER_0_25_149
*553 FILLER_0_25_15
*554 FILLER_0_25_161
*555 FILLER_0_25_167
*556 FILLER_0_25_169
*557 FILLER_0_25_175
*558 FILLER_0_25_187
*559 FILLER_0_25_27
*560 FILLER_0_25_3
*561 FILLER_0_25_60
*562 FILLER_0_25_68
*563 FILLER_0_25_72
*564 FILLER_0_25_84
*565 FILLER_0_25_96
*566 FILLER_0_26_109
*567 FILLER_0_26_121
*568 FILLER_0_26_133
*569 FILLER_0_26_139
*570 FILLER_0_26_141
*571 FILLER_0_26_15
*572 FILLER_0_26_153
*573 FILLER_0_26_161
*574 FILLER_0_26_27
*575 FILLER_0_26_29
*576 FILLER_0_26_3
*577 FILLER_0_26_41
*578 FILLER_0_26_46
*579 FILLER_0_26_58
*580 FILLER_0_26_70
*581 FILLER_0_26_82
*582 FILLER_0_26_85
*583 FILLER_0_26_97
*584 FILLER_0_27_105
*585 FILLER_0_27_111
*586 FILLER_0_27_113
*587 FILLER_0_27_125
*588 FILLER_0_27_137
*589 FILLER_0_27_149
*590 FILLER_0_27_15
*591 FILLER_0_27_157
*592 FILLER_0_27_163
*593 FILLER_0_27_167
*594 FILLER_0_27_169
*595 FILLER_0_27_181
*596 FILLER_0_27_27
*597 FILLER_0_27_3
*598 FILLER_0_27_39
*599 FILLER_0_27_51
*600 FILLER_0_27_55
*601 FILLER_0_27_57
*602 FILLER_0_27_69
*603 FILLER_0_27_75
*604 FILLER_0_27_87
*605 FILLER_0_27_99
*606 FILLER_0_28_109
*607 FILLER_0_28_121
*608 FILLER_0_28_129
*609 FILLER_0_28_137
*610 FILLER_0_28_141
*611 FILLER_0_28_153
*612 FILLER_0_28_165
*613 FILLER_0_28_177
*614 FILLER_0_28_185
*615 FILLER_0_28_189
*616 FILLER_0_28_21
*617 FILLER_0_28_27
*618 FILLER_0_28_3
*619 FILLER_0_28_32
*620 FILLER_0_28_44
*621 FILLER_0_28_56
*622 FILLER_0_28_68
*623 FILLER_0_28_76
*624 FILLER_0_28_81
*625 FILLER_0_28_85
*626 FILLER_0_28_9
*627 FILLER_0_28_97
*628 FILLER_0_29_105
*629 FILLER_0_29_111
*630 FILLER_0_29_113
*631 FILLER_0_29_125
*632 FILLER_0_29_13
*633 FILLER_0_29_137
*634 FILLER_0_29_149
*635 FILLER_0_29_161
*636 FILLER_0_29_167
*637 FILLER_0_29_169
*638 FILLER_0_29_173
*639 FILLER_0_29_179
*640 FILLER_0_29_183
*641 FILLER_0_29_189
*642 FILLER_0_29_3
*643 FILLER_0_29_38
*644 FILLER_0_29_50
*645 FILLER_0_29_57
*646 FILLER_0_29_69
*647 FILLER_0_29_7
*648 FILLER_0_29_81
*649 FILLER_0_29_93
*650 FILLER_0_2_109
*651 FILLER_0_2_121
*652 FILLER_0_2_133
*653 FILLER_0_2_139
*654 FILLER_0_2_141
*655 FILLER_0_2_15
*656 FILLER_0_2_166
*657 FILLER_0_2_178
*658 FILLER_0_2_187
*659 FILLER_0_2_27
*660 FILLER_0_2_29
*661 FILLER_0_2_3
*662 FILLER_0_2_41
*663 FILLER_0_2_53
*664 FILLER_0_2_65
*665 FILLER_0_2_77
*666 FILLER_0_2_83
*667 FILLER_0_2_85
*668 FILLER_0_2_97
*669 FILLER_0_30_119
*670 FILLER_0_30_126
*671 FILLER_0_30_132
*672 FILLER_0_30_139
*673 FILLER_0_30_141
*674 FILLER_0_30_15
*675 FILLER_0_30_153
*676 FILLER_0_30_165
*677 FILLER_0_30_177
*678 FILLER_0_30_189
*679 FILLER_0_30_27
*680 FILLER_0_30_3
*681 FILLER_0_30_35
*682 FILLER_0_30_47
*683 FILLER_0_30_56
*684 FILLER_0_30_68
*685 FILLER_0_30_78
*686 FILLER_0_30_85
*687 FILLER_0_31_110
*688 FILLER_0_31_113
*689 FILLER_0_31_121
*690 FILLER_0_31_129
*691 FILLER_0_31_15
*692 FILLER_0_31_155
*693 FILLER_0_31_167
*694 FILLER_0_31_169
*695 FILLER_0_31_181
*696 FILLER_0_31_185
*697 FILLER_0_31_27
*698 FILLER_0_31_3
*699 FILLER_0_31_39
*700 FILLER_0_31_51
*701 FILLER_0_31_55
*702 FILLER_0_31_57
*703 FILLER_0_31_69
*704 FILLER_0_31_79
*705 FILLER_0_31_87
*706 FILLER_0_31_98
*707 FILLER_0_32_109
*708 FILLER_0_32_121
*709 FILLER_0_32_133
*710 FILLER_0_32_139
*711 FILLER_0_32_141
*712 FILLER_0_32_15
*713 FILLER_0_32_153
*714 FILLER_0_32_165
*715 FILLER_0_32_171
*716 FILLER_0_32_183
*717 FILLER_0_32_189
*718 FILLER_0_32_27
*719 FILLER_0_32_29
*720 FILLER_0_32_3
*721 FILLER_0_32_38
*722 FILLER_0_32_48
*723 FILLER_0_32_60
*724 FILLER_0_32_72
*725 FILLER_0_32_85
*726 FILLER_0_33_105
*727 FILLER_0_33_111
*728 FILLER_0_33_113
*729 FILLER_0_33_125
*730 FILLER_0_33_15
*731 FILLER_0_33_151
*732 FILLER_0_33_163
*733 FILLER_0_33_167
*734 FILLER_0_33_169
*735 FILLER_0_33_181
*736 FILLER_0_33_189
*737 FILLER_0_33_27
*738 FILLER_0_33_3
*739 FILLER_0_33_39
*740 FILLER_0_33_51
*741 FILLER_0_33_55
*742 FILLER_0_33_57
*743 FILLER_0_33_69
*744 FILLER_0_33_81
*745 FILLER_0_33_93
*746 FILLER_0_34_102
*747 FILLER_0_34_114
*748 FILLER_0_34_126
*749 FILLER_0_34_138
*750 FILLER_0_34_14
*751 FILLER_0_34_141
*752 FILLER_0_34_153
*753 FILLER_0_34_165
*754 FILLER_0_34_177
*755 FILLER_0_34_189
*756 FILLER_0_34_26
*757 FILLER_0_34_29
*758 FILLER_0_34_3
*759 FILLER_0_34_41
*760 FILLER_0_34_49
*761 FILLER_0_34_58
*762 FILLER_0_34_70
*763 FILLER_0_34_82
*764 FILLER_0_34_85
*765 FILLER_0_34_93
*766 FILLER_0_35_104
*767 FILLER_0_35_111
*768 FILLER_0_35_113
*769 FILLER_0_35_125
*770 FILLER_0_35_137
*771 FILLER_0_35_149
*772 FILLER_0_35_15
*773 FILLER_0_35_161
*774 FILLER_0_35_167
*775 FILLER_0_35_169
*776 FILLER_0_35_181
*777 FILLER_0_35_189
*778 FILLER_0_35_21
*779 FILLER_0_35_3
*780 FILLER_0_35_33
*781 FILLER_0_35_41
*782 FILLER_0_35_51
*783 FILLER_0_35_55
*784 FILLER_0_35_60
*785 FILLER_0_35_72
*786 FILLER_0_35_84
*787 FILLER_0_35_88
*788 FILLER_0_35_92
*789 FILLER_0_36_110
*790 FILLER_0_36_114
*791 FILLER_0_36_120
*792 FILLER_0_36_128
*793 FILLER_0_36_141
*794 FILLER_0_36_149
*795 FILLER_0_36_15
*796 FILLER_0_36_155
*797 FILLER_0_36_167
*798 FILLER_0_36_179
*799 FILLER_0_36_187
*800 FILLER_0_36_27
*801 FILLER_0_36_29
*802 FILLER_0_36_3
*803 FILLER_0_36_38
*804 FILLER_0_36_46
*805 FILLER_0_36_58
*806 FILLER_0_36_70
*807 FILLER_0_36_82
*808 FILLER_0_36_85
*809 FILLER_0_36_98
*810 FILLER_0_37_105
*811 FILLER_0_37_111
*812 FILLER_0_37_113
*813 FILLER_0_37_125
*814 FILLER_0_37_137
*815 FILLER_0_37_149
*816 FILLER_0_37_15
*817 FILLER_0_37_157
*818 FILLER_0_37_164
*819 FILLER_0_37_175
*820 FILLER_0_37_183
*821 FILLER_0_37_189
*822 FILLER_0_37_27
*823 FILLER_0_37_3
*824 FILLER_0_37_42
*825 FILLER_0_37_46
*826 FILLER_0_37_51
*827 FILLER_0_37_55
*828 FILLER_0_37_57
*829 FILLER_0_37_69
*830 FILLER_0_37_81
*831 FILLER_0_37_93
*832 FILLER_0_38_101
*833 FILLER_0_38_107
*834 FILLER_0_38_119
*835 FILLER_0_38_131
*836 FILLER_0_38_139
*837 FILLER_0_38_141
*838 FILLER_0_38_15
*839 FILLER_0_38_153
*840 FILLER_0_38_157
*841 FILLER_0_38_181
*842 FILLER_0_38_185
*843 FILLER_0_38_27
*844 FILLER_0_38_29
*845 FILLER_0_38_3
*846 FILLER_0_38_42
*847 FILLER_0_38_54
*848 FILLER_0_38_66
*849 FILLER_0_38_78
*850 FILLER_0_38_85
*851 FILLER_0_38_93
*852 FILLER_0_39_104
*853 FILLER_0_39_110
*854 FILLER_0_39_113
*855 FILLER_0_39_125
*856 FILLER_0_39_136
*857 FILLER_0_39_148
*858 FILLER_0_39_16
*859 FILLER_0_39_160
*860 FILLER_0_39_169
*861 FILLER_0_39_181
*862 FILLER_0_39_189
*863 FILLER_0_39_24
*864 FILLER_0_39_3
*865 FILLER_0_39_36
*866 FILLER_0_39_48
*867 FILLER_0_39_57
*868 FILLER_0_39_72
*869 FILLER_0_39_84
*870 FILLER_0_39_9
*871 FILLER_0_39_96
*872 FILLER_0_3_106
*873 FILLER_0_3_11
*874 FILLER_0_3_113
*875 FILLER_0_3_125
*876 FILLER_0_3_129
*877 FILLER_0_3_135
*878 FILLER_0_3_147
*879 FILLER_0_3_159
*880 FILLER_0_3_167
*881 FILLER_0_3_169
*882 FILLER_0_3_181
*883 FILLER_0_3_189
*884 FILLER_0_3_3
*885 FILLER_0_3_37
*886 FILLER_0_3_45
*887 FILLER_0_3_52
*888 FILLER_0_3_57
*889 FILLER_0_3_69
*890 FILLER_0_3_82
*891 FILLER_0_3_94
*892 FILLER_0_40_106
*893 FILLER_0_40_133
*894 FILLER_0_40_139
*895 FILLER_0_40_141
*896 FILLER_0_40_15
*897 FILLER_0_40_153
*898 FILLER_0_40_165
*899 FILLER_0_40_173
*900 FILLER_0_40_179
*901 FILLER_0_40_187
*902 FILLER_0_40_27
*903 FILLER_0_40_29
*904 FILLER_0_40_3
*905 FILLER_0_40_41
*906 FILLER_0_40_46
*907 FILLER_0_40_58
*908 FILLER_0_40_70
*909 FILLER_0_40_77
*910 FILLER_0_40_83
*911 FILLER_0_40_85
*912 FILLER_0_40_94
*913 FILLER_0_41_106
*914 FILLER_0_41_113
*915 FILLER_0_41_125
*916 FILLER_0_41_137
*917 FILLER_0_41_149
*918 FILLER_0_41_155
*919 FILLER_0_41_160
*920 FILLER_0_41_18
*921 FILLER_0_41_181
*922 FILLER_0_41_189
*923 FILLER_0_41_3
*924 FILLER_0_41_30
*925 FILLER_0_41_42
*926 FILLER_0_41_54
*927 FILLER_0_41_57
*928 FILLER_0_41_70
*929 FILLER_0_41_82
*930 FILLER_0_41_94
*931 FILLER_0_42_109
*932 FILLER_0_42_121
*933 FILLER_0_42_129
*934 FILLER_0_42_134
*935 FILLER_0_42_141
*936 FILLER_0_42_15
*937 FILLER_0_42_153
*938 FILLER_0_42_189
*939 FILLER_0_42_27
*940 FILLER_0_42_29
*941 FILLER_0_42_3
*942 FILLER_0_42_35
*943 FILLER_0_42_68
*944 FILLER_0_42_80
*945 FILLER_0_42_85
*946 FILLER_0_42_97
*947 FILLER_0_43_105
*948 FILLER_0_43_111
*949 FILLER_0_43_113
*950 FILLER_0_43_125
*951 FILLER_0_43_137
*952 FILLER_0_43_149
*953 FILLER_0_43_15
*954 FILLER_0_43_161
*955 FILLER_0_43_167
*956 FILLER_0_43_169
*957 FILLER_0_43_176
*958 FILLER_0_43_188
*959 FILLER_0_43_27
*960 FILLER_0_43_3
*961 FILLER_0_43_37
*962 FILLER_0_43_49
*963 FILLER_0_43_55
*964 FILLER_0_43_57
*965 FILLER_0_43_69
*966 FILLER_0_43_81
*967 FILLER_0_43_93
*968 FILLER_0_44_104
*969 FILLER_0_44_112
*970 FILLER_0_44_116
*971 FILLER_0_44_124
*972 FILLER_0_44_129
*973 FILLER_0_44_137
*974 FILLER_0_44_141
*975 FILLER_0_44_15
*976 FILLER_0_44_153
*977 FILLER_0_44_157
*978 FILLER_0_44_161
*979 FILLER_0_44_169
*980 FILLER_0_44_175
*981 FILLER_0_44_187
*982 FILLER_0_44_27
*983 FILLER_0_44_29
*984 FILLER_0_44_3
*985 FILLER_0_44_41
*986 FILLER_0_44_53
*987 FILLER_0_44_65
*988 FILLER_0_44_77
*989 FILLER_0_44_83
*990 FILLER_0_44_85
*991 FILLER_0_44_92
*992 FILLER_0_45_116
*993 FILLER_0_45_124
*994 FILLER_0_45_148
*995 FILLER_0_45_15
*996 FILLER_0_45_160
*997 FILLER_0_45_169
*998 FILLER_0_45_181
*999 FILLER_0_45_184
*1000 FILLER_0_45_27
*1001 FILLER_0_45_3
*1002 FILLER_0_45_35
*1003 FILLER_0_45_40
*1004 FILLER_0_45_52
*1005 FILLER_0_45_57
*1006 FILLER_0_45_69
*1007 FILLER_0_45_81
*1008 FILLER_0_45_89
*1009 FILLER_0_46_109
*1010 FILLER_0_46_113
*1011 FILLER_0_46_125
*1012 FILLER_0_46_137
*1013 FILLER_0_46_141
*1014 FILLER_0_46_149
*1015 FILLER_0_46_15
*1016 FILLER_0_46_157
*1017 FILLER_0_46_165
*1018 FILLER_0_46_169
*1019 FILLER_0_46_188
*1020 FILLER_0_46_27
*1021 FILLER_0_46_29
*1022 FILLER_0_46_3
*1023 FILLER_0_46_41
*1024 FILLER_0_46_53
*1025 FILLER_0_46_57
*1026 FILLER_0_46_69
*1027 FILLER_0_46_81
*1028 FILLER_0_46_85
*1029 FILLER_0_46_97
*1030 FILLER_0_4_109
*1031 FILLER_0_4_121
*1032 FILLER_0_4_126
*1033 FILLER_0_4_141
*1034 FILLER_0_4_15
*1035 FILLER_0_4_153
*1036 FILLER_0_4_165
*1037 FILLER_0_4_24
*1038 FILLER_0_4_29
*1039 FILLER_0_4_3
*1040 FILLER_0_4_41
*1041 FILLER_0_4_53
*1042 FILLER_0_4_65
*1043 FILLER_0_4_77
*1044 FILLER_0_4_83
*1045 FILLER_0_4_85
*1046 FILLER_0_4_97
*1047 FILLER_0_5_104
*1048 FILLER_0_5_11
*1049 FILLER_0_5_113
*1050 FILLER_0_5_125
*1051 FILLER_0_5_137
*1052 FILLER_0_5_153
*1053 FILLER_0_5_165
*1054 FILLER_0_5_169
*1055 FILLER_0_5_181
*1056 FILLER_0_5_189
*1057 FILLER_0_5_20
*1058 FILLER_0_5_3
*1059 FILLER_0_5_32
*1060 FILLER_0_5_44
*1061 FILLER_0_5_57
*1062 FILLER_0_5_69
*1063 FILLER_0_5_81
*1064 FILLER_0_5_93
*1065 FILLER_0_6_109
*1066 FILLER_0_6_121
*1067 FILLER_0_6_133
*1068 FILLER_0_6_139
*1069 FILLER_0_6_141
*1070 FILLER_0_6_145
*1071 FILLER_0_6_157
*1072 FILLER_0_6_169
*1073 FILLER_0_6_181
*1074 FILLER_0_6_189
*1075 FILLER_0_6_19
*1076 FILLER_0_6_27
*1077 FILLER_0_6_29
*1078 FILLER_0_6_3
*1079 FILLER_0_6_40
*1080 FILLER_0_6_48
*1081 FILLER_0_6_55
*1082 FILLER_0_6_67
*1083 FILLER_0_6_71
*1084 FILLER_0_6_78
*1085 FILLER_0_6_85
*1086 FILLER_0_6_97
*1087 FILLER_0_7_105
*1088 FILLER_0_7_111
*1089 FILLER_0_7_113
*1090 FILLER_0_7_119
*1091 FILLER_0_7_141
*1092 FILLER_0_7_147
*1093 FILLER_0_7_15
*1094 FILLER_0_7_154
*1095 FILLER_0_7_166
*1096 FILLER_0_7_169
*1097 FILLER_0_7_183
*1098 FILLER_0_7_189
*1099 FILLER_0_7_27
*1100 FILLER_0_7_3
*1101 FILLER_0_7_39
*1102 FILLER_0_7_51
*1103 FILLER_0_7_55
*1104 FILLER_0_7_57
*1105 FILLER_0_7_69
*1106 FILLER_0_7_81
*1107 FILLER_0_7_93
*1108 FILLER_0_8_109
*1109 FILLER_0_8_124
*1110 FILLER_0_8_136
*1111 FILLER_0_8_141
*1112 FILLER_0_8_147
*1113 FILLER_0_8_15
*1114 FILLER_0_8_171
*1115 FILLER_0_8_183
*1116 FILLER_0_8_27
*1117 FILLER_0_8_3
*1118 FILLER_0_8_49
*1119 FILLER_0_8_61
*1120 FILLER_0_8_73
*1121 FILLER_0_8_81
*1122 FILLER_0_8_85
*1123 FILLER_0_8_97
*1124 FILLER_0_9_105
*1125 FILLER_0_9_111
*1126 FILLER_0_9_113
*1127 FILLER_0_9_119
*1128 FILLER_0_9_125
*1129 FILLER_0_9_141
*1130 FILLER_0_9_15
*1131 FILLER_0_9_153
*1132 FILLER_0_9_165
*1133 FILLER_0_9_189
*1134 FILLER_0_9_27
*1135 FILLER_0_9_3
*1136 FILLER_0_9_39
*1137 FILLER_0_9_51
*1138 FILLER_0_9_55
*1139 FILLER_0_9_57
*1140 FILLER_0_9_69
*1141 FILLER_0_9_81
*1142 FILLER_0_9_93
*1143 PHY_EDGE_ROW_0_Left_47
*1144 PHY_EDGE_ROW_0_Right_0
*1145 PHY_EDGE_ROW_10_Left_57
*1146 PHY_EDGE_ROW_10_Right_10
*1147 PHY_EDGE_ROW_11_Left_58
*1148 PHY_EDGE_ROW_11_Right_11
*1149 PHY_EDGE_ROW_12_Left_59
*1150 PHY_EDGE_ROW_12_Right_12
*1151 PHY_EDGE_ROW_13_Left_60
*1152 PHY_EDGE_ROW_13_Right_13
*1153 PHY_EDGE_ROW_14_Left_61
*1154 PHY_EDGE_ROW_14_Right_14
*1155 PHY_EDGE_ROW_15_Left_62
*1156 PHY_EDGE_ROW_15_Right_15
*1157 PHY_EDGE_ROW_16_Left_63
*1158 PHY_EDGE_ROW_16_Right_16
*1159 PHY_EDGE_ROW_17_Left_64
*1160 PHY_EDGE_ROW_17_Right_17
*1161 PHY_EDGE_ROW_18_Left_65
*1162 PHY_EDGE_ROW_18_Right_18
*1163 PHY_EDGE_ROW_19_Left_66
*1164 PHY_EDGE_ROW_19_Right_19
*1165 PHY_EDGE_ROW_1_Left_48
*1166 PHY_EDGE_ROW_1_Right_1
*1167 PHY_EDGE_ROW_20_Left_67
*1168 PHY_EDGE_ROW_20_Right_20
*1169 PHY_EDGE_ROW_21_Left_68
*1170 PHY_EDGE_ROW_21_Right_21
*1171 PHY_EDGE_ROW_22_Left_69
*1172 PHY_EDGE_ROW_22_Right_22
*1173 PHY_EDGE_ROW_23_Left_70
*1174 PHY_EDGE_ROW_23_Right_23
*1175 PHY_EDGE_ROW_24_Left_71
*1176 PHY_EDGE_ROW_24_Right_24
*1177 PHY_EDGE_ROW_25_Left_72
*1178 PHY_EDGE_ROW_25_Right_25
*1179 PHY_EDGE_ROW_26_Left_73
*1180 PHY_EDGE_ROW_26_Right_26
*1181 PHY_EDGE_ROW_27_Left_74
*1182 PHY_EDGE_ROW_27_Right_27
*1183 PHY_EDGE_ROW_28_Left_75
*1184 PHY_EDGE_ROW_28_Right_28
*1185 PHY_EDGE_ROW_29_Left_76
*1186 PHY_EDGE_ROW_29_Right_29
*1187 PHY_EDGE_ROW_2_Left_49
*1188 PHY_EDGE_ROW_2_Right_2
*1189 PHY_EDGE_ROW_30_Left_77
*1190 PHY_EDGE_ROW_30_Right_30
*1191 PHY_EDGE_ROW_31_Left_78
*1192 PHY_EDGE_ROW_31_Right_31
*1193 PHY_EDGE_ROW_32_Left_79
*1194 PHY_EDGE_ROW_32_Right_32
*1195 PHY_EDGE_ROW_33_Left_80
*1196 PHY_EDGE_ROW_33_Right_33
*1197 PHY_EDGE_ROW_34_Left_81
*1198 PHY_EDGE_ROW_34_Right_34
*1199 PHY_EDGE_ROW_35_Left_82
*1200 PHY_EDGE_ROW_35_Right_35
*1201 PHY_EDGE_ROW_36_Left_83
*1202 PHY_EDGE_ROW_36_Right_36
*1203 PHY_EDGE_ROW_37_Left_84
*1204 PHY_EDGE_ROW_37_Right_37
*1205 PHY_EDGE_ROW_38_Left_85
*1206 PHY_EDGE_ROW_38_Right_38
*1207 PHY_EDGE_ROW_39_Left_86
*1208 PHY_EDGE_ROW_39_Right_39
*1209 PHY_EDGE_ROW_3_Left_50
*1210 PHY_EDGE_ROW_3_Right_3
*1211 PHY_EDGE_ROW_40_Left_87
*1212 PHY_EDGE_ROW_40_Right_40
*1213 PHY_EDGE_ROW_41_Left_88
*1214 PHY_EDGE_ROW_41_Right_41
*1215 PHY_EDGE_ROW_42_Left_89
*1216 PHY_EDGE_ROW_42_Right_42
*1217 PHY_EDGE_ROW_43_Left_90
*1218 PHY_EDGE_ROW_43_Right_43
*1219 PHY_EDGE_ROW_44_Left_91
*1220 PHY_EDGE_ROW_44_Right_44
*1221 PHY_EDGE_ROW_45_Left_92
*1222 PHY_EDGE_ROW_45_Right_45
*1223 PHY_EDGE_ROW_46_Left_93
*1224 PHY_EDGE_ROW_46_Right_46
*1225 PHY_EDGE_ROW_4_Left_51
*1226 PHY_EDGE_ROW_4_Right_4
*1227 PHY_EDGE_ROW_5_Left_52
*1228 PHY_EDGE_ROW_5_Right_5
*1229 PHY_EDGE_ROW_6_Left_53
*1230 PHY_EDGE_ROW_6_Right_6
*1231 PHY_EDGE_ROW_7_Left_54
*1232 PHY_EDGE_ROW_7_Right_7
*1233 PHY_EDGE_ROW_8_Left_55
*1234 PHY_EDGE_ROW_8_Right_8
*1235 PHY_EDGE_ROW_9_Left_56
*1236 PHY_EDGE_ROW_9_Right_9
*1237 TAP_TAPCELL_ROW_0_94
*1238 TAP_TAPCELL_ROW_0_95
*1239 TAP_TAPCELL_ROW_0_96
*1240 TAP_TAPCELL_ROW_0_97
*1241 TAP_TAPCELL_ROW_0_98
*1242 TAP_TAPCELL_ROW_0_99
*1243 TAP_TAPCELL_ROW_10_127
*1244 TAP_TAPCELL_ROW_10_128
*1245 TAP_TAPCELL_ROW_10_129
*1246 TAP_TAPCELL_ROW_11_130
*1247 TAP_TAPCELL_ROW_11_131
*1248 TAP_TAPCELL_ROW_11_132
*1249 TAP_TAPCELL_ROW_12_133
*1250 TAP_TAPCELL_ROW_12_134
*1251 TAP_TAPCELL_ROW_12_135
*1252 TAP_TAPCELL_ROW_13_136
*1253 TAP_TAPCELL_ROW_13_137
*1254 TAP_TAPCELL_ROW_13_138
*1255 TAP_TAPCELL_ROW_14_139
*1256 TAP_TAPCELL_ROW_14_140
*1257 TAP_TAPCELL_ROW_14_141
*1258 TAP_TAPCELL_ROW_15_142
*1259 TAP_TAPCELL_ROW_15_143
*1260 TAP_TAPCELL_ROW_15_144
*1261 TAP_TAPCELL_ROW_16_145
*1262 TAP_TAPCELL_ROW_16_146
*1263 TAP_TAPCELL_ROW_16_147
*1264 TAP_TAPCELL_ROW_17_148
*1265 TAP_TAPCELL_ROW_17_149
*1266 TAP_TAPCELL_ROW_17_150
*1267 TAP_TAPCELL_ROW_18_151
*1268 TAP_TAPCELL_ROW_18_152
*1269 TAP_TAPCELL_ROW_18_153
*1270 TAP_TAPCELL_ROW_19_154
*1271 TAP_TAPCELL_ROW_19_155
*1272 TAP_TAPCELL_ROW_19_156
*1273 TAP_TAPCELL_ROW_1_100
*1274 TAP_TAPCELL_ROW_1_101
*1275 TAP_TAPCELL_ROW_1_102
*1276 TAP_TAPCELL_ROW_20_157
*1277 TAP_TAPCELL_ROW_20_158
*1278 TAP_TAPCELL_ROW_20_159
*1279 TAP_TAPCELL_ROW_21_160
*1280 TAP_TAPCELL_ROW_21_161
*1281 TAP_TAPCELL_ROW_21_162
*1282 TAP_TAPCELL_ROW_22_163
*1283 TAP_TAPCELL_ROW_22_164
*1284 TAP_TAPCELL_ROW_22_165
*1285 TAP_TAPCELL_ROW_23_166
*1286 TAP_TAPCELL_ROW_23_167
*1287 TAP_TAPCELL_ROW_23_168
*1288 TAP_TAPCELL_ROW_24_169
*1289 TAP_TAPCELL_ROW_24_170
*1290 TAP_TAPCELL_ROW_24_171
*1291 TAP_TAPCELL_ROW_25_172
*1292 TAP_TAPCELL_ROW_25_173
*1293 TAP_TAPCELL_ROW_25_174
*1294 TAP_TAPCELL_ROW_26_175
*1295 TAP_TAPCELL_ROW_26_176
*1296 TAP_TAPCELL_ROW_26_177
*1297 TAP_TAPCELL_ROW_27_178
*1298 TAP_TAPCELL_ROW_27_179
*1299 TAP_TAPCELL_ROW_27_180
*1300 TAP_TAPCELL_ROW_28_181
*1301 TAP_TAPCELL_ROW_28_182
*1302 TAP_TAPCELL_ROW_28_183
*1303 TAP_TAPCELL_ROW_29_184
*1304 TAP_TAPCELL_ROW_29_185
*1305 TAP_TAPCELL_ROW_29_186
*1306 TAP_TAPCELL_ROW_2_103
*1307 TAP_TAPCELL_ROW_2_104
*1308 TAP_TAPCELL_ROW_2_105
*1309 TAP_TAPCELL_ROW_30_187
*1310 TAP_TAPCELL_ROW_30_188
*1311 TAP_TAPCELL_ROW_30_189
*1312 TAP_TAPCELL_ROW_31_190
*1313 TAP_TAPCELL_ROW_31_191
*1314 TAP_TAPCELL_ROW_31_192
*1315 TAP_TAPCELL_ROW_32_193
*1316 TAP_TAPCELL_ROW_32_194
*1317 TAP_TAPCELL_ROW_32_195
*1318 TAP_TAPCELL_ROW_33_196
*1319 TAP_TAPCELL_ROW_33_197
*1320 TAP_TAPCELL_ROW_33_198
*1321 TAP_TAPCELL_ROW_34_199
*1322 TAP_TAPCELL_ROW_34_200
*1323 TAP_TAPCELL_ROW_34_201
*1324 TAP_TAPCELL_ROW_35_202
*1325 TAP_TAPCELL_ROW_35_203
*1326 TAP_TAPCELL_ROW_35_204
*1327 TAP_TAPCELL_ROW_36_205
*1328 TAP_TAPCELL_ROW_36_206
*1329 TAP_TAPCELL_ROW_36_207
*1330 TAP_TAPCELL_ROW_37_208
*1331 TAP_TAPCELL_ROW_37_209
*1332 TAP_TAPCELL_ROW_37_210
*1333 TAP_TAPCELL_ROW_38_211
*1334 TAP_TAPCELL_ROW_38_212
*1335 TAP_TAPCELL_ROW_38_213
*1336 TAP_TAPCELL_ROW_39_214
*1337 TAP_TAPCELL_ROW_39_215
*1338 TAP_TAPCELL_ROW_39_216
*1339 TAP_TAPCELL_ROW_3_106
*1340 TAP_TAPCELL_ROW_3_107
*1341 TAP_TAPCELL_ROW_3_108
*1342 TAP_TAPCELL_ROW_40_217
*1343 TAP_TAPCELL_ROW_40_218
*1344 TAP_TAPCELL_ROW_40_219
*1345 TAP_TAPCELL_ROW_41_220
*1346 TAP_TAPCELL_ROW_41_221
*1347 TAP_TAPCELL_ROW_41_222
*1348 TAP_TAPCELL_ROW_42_223
*1349 TAP_TAPCELL_ROW_42_224
*1350 TAP_TAPCELL_ROW_42_225
*1351 TAP_TAPCELL_ROW_43_226
*1352 TAP_TAPCELL_ROW_43_227
*1353 TAP_TAPCELL_ROW_43_228
*1354 TAP_TAPCELL_ROW_44_229
*1355 TAP_TAPCELL_ROW_44_230
*1356 TAP_TAPCELL_ROW_44_231
*1357 TAP_TAPCELL_ROW_45_232
*1358 TAP_TAPCELL_ROW_45_233
*1359 TAP_TAPCELL_ROW_45_234
*1360 TAP_TAPCELL_ROW_46_235
*1361 TAP_TAPCELL_ROW_46_236
*1362 TAP_TAPCELL_ROW_46_237
*1363 TAP_TAPCELL_ROW_46_238
*1364 TAP_TAPCELL_ROW_46_239
*1365 TAP_TAPCELL_ROW_46_240
*1366 TAP_TAPCELL_ROW_4_109
*1367 TAP_TAPCELL_ROW_4_110
*1368 TAP_TAPCELL_ROW_4_111
*1369 TAP_TAPCELL_ROW_5_112
*1370 TAP_TAPCELL_ROW_5_113
*1371 TAP_TAPCELL_ROW_5_114
*1372 TAP_TAPCELL_ROW_6_115
*1373 TAP_TAPCELL_ROW_6_116
*1374 TAP_TAPCELL_ROW_6_117
*1375 TAP_TAPCELL_ROW_7_118
*1376 TAP_TAPCELL_ROW_7_119
*1377 TAP_TAPCELL_ROW_7_120
*1378 TAP_TAPCELL_ROW_8_121
*1379 TAP_TAPCELL_ROW_8_122
*1380 TAP_TAPCELL_ROW_8_123
*1381 TAP_TAPCELL_ROW_9_124
*1382 TAP_TAPCELL_ROW_9_125
*1383 TAP_TAPCELL_ROW_9_126
*1384 ZeroToFiveCounter_10
*1385 ZeroToFiveCounter_11
*1386 ZeroToFiveCounter_12
*1387 ZeroToFiveCounter_13
*1388 ZeroToFiveCounter_14
*1389 ZeroToFiveCounter_15
*1390 ZeroToFiveCounter_16
*1391 ZeroToFiveCounter_9
*1392 _162_
*1393 _163_
*1394 _164_
*1395 _165_
*1396 _166_
*1397 _167_
*1398 _168_
*1399 _169_
*1400 _170_
*1401 _171_
*1402 _172_
*1403 _173_
*1404 _174_
*1405 _175_
*1406 _176_
*1407 _177_
*1408 _178_
*1409 _179_
*1410 _180_
*1411 _181_
*1412 _182_
*1413 _183_
*1414 _184_
*1415 _185_
*1416 _186_
*1417 _187_
*1418 _188_
*1419 _189_
*1420 _190_
*1421 _191_
*1422 _192_
*1423 _193_
*1424 _194_
*1425 _195_
*1426 _196_
*1427 _197_
*1428 _198_
*1429 _199_
*1430 _200_
*1431 _201_
*1432 _202_
*1433 _203_
*1434 _204_
*1435 _205_
*1436 _206_
*1437 _207_
*1438 _208_
*1439 _209_
*1440 _210_
*1441 _211_
*1442 _212_
*1443 _213_
*1444 _214_
*1445 _215_
*1446 _216_
*1447 _217_
*1448 _218_
*1449 _219_
*1450 _220_
*1451 _221_
*1452 _222_
*1453 _223_
*1454 _224_
*1455 _225_
*1456 _226_
*1457 _227_
*1458 _228_
*1459 _229_
*1460 _230_
*1461 _231_
*1462 _232_
*1463 _233_
*1464 _234_
*1465 _235_
*1466 _236_
*1467 _237_
*1468 _238_
*1469 _239_
*1470 _240_
*1471 _241_
*1472 _242_
*1473 _243_
*1474 _244_
*1475 _245_
*1476 _246_
*1477 _247_
*1478 _248_
*1479 _249_
*1480 _250_
*1481 _251_
*1482 _252_
*1483 _253_
*1484 _254_
*1485 _255_
*1486 _256_
*1487 _257_
*1488 _258_
*1489 _259_
*1490 _260_
*1491 _261_
*1492 _262_
*1493 _263_
*1494 _264_
*1495 _265_
*1496 _266_
*1497 _267_
*1498 _268_
*1499 _269_
*1500 _270_
*1501 _271_
*1502 _272_
*1503 _273_
*1504 _274_
*1505 _275_
*1506 _276_
*1507 _277_
*1508 _278_
*1509 _279_
*1510 _280_
*1511 _281_
*1512 _282_
*1513 _283_
*1514 _284_
*1515 _285_
*1516 _286_
*1517 _287_
*1518 _288_
*1519 _289_
*1520 _290_
*1521 _291_
*1522 _292_
*1523 _293_
*1524 _294_
*1525 _295_
*1526 _296_
*1527 _297_
*1528 _298_
*1529 _299_
*1530 _300_
*1531 _301_
*1532 _302_
*1533 _303_
*1534 _304_
*1535 _305_
*1536 _306_
*1537 _307_
*1538 _308_
*1539 _309_
*1540 _310_
*1541 _311_
*1542 _312_
*1543 _313_
*1544 _314_
*1545 _315_
*1546 _316_
*1547 _317_
*1548 _318_
*1549 _319_
*1550 _320_
*1551 _321_
*1552 _322_
*1553 _323_
*1554 _324_
*1555 _325_
*1556 _326_
*1557 _327_
*1558 _328_
*1559 _329_
*1560 _330_
*1561 _331_
*1562 _332_
*1563 _333_
*1564 _334_
*1565 _335_
*1566 _336_
*1567 _337_
*1568 _338_
*1569 _339_
*1570 _340_
*1571 _341_
*1572 _342_
*1573 _343_
*1574 _344_
*1575 _345_
*1576 _346_
*1577 _347_
*1578 _348_
*1579 _349_
*1580 _350_
*1581 _351_
*1582 _352_
*1583 _353_
*1584 _354_
*1585 _355_
*1586 _356_
*1587 _357_
*1588 _358_
*1589 _359_
*1590 _360_
*1591 _361_
*1592 _370_
*1593 clkbuf_0_clk
*1594 clkbuf_2_0__f_clk
*1595 clkbuf_2_1__f_clk
*1596 clkbuf_2_2__f_clk
*1597 clkbuf_2_3__f_clk
*1598 clkload0
*1599 clkload1
*1600 clkload2
*1601 hold1
*1602 input1
*1603 output2
*1604 output3
*1605 output4
*1606 output5
*1607 output6
*1608 output7
*1609 output8

*PORTS
an[0] O
an[1] O
an[2] O
an[3] O
an[4] O
an[5] O
an[6] O
an[7] O
clk I
rst I
seg[0] O
seg[1] O
seg[2] O
seg[3] O
seg[4] O
seg[5] O
seg[6] O

*D_NET *3 0.000935434
*CONN
*P an[0] O
*I *1384:HI O *D sky130_fd_sc_hd__conb_1
*CAP
1 an[0] 0.000467717
2 *1384:HI 0.000467717
*RES
1 *1384:HI an[0] 47.0936 
*END

*D_NET *4 0.00089518
*CONN
*P an[1] O
*I *1385:HI O *D sky130_fd_sc_hd__conb_1
*CAP
1 an[1] 0.000420085
2 *1385:HI 0.000420085
3 an[1] *1578:D 5.50106e-05
*RES
1 *1385:HI an[1] 46.6171 
*END

*D_NET *5 0.000971413
*CONN
*P an[2] O
*I *1386:HI O *D sky130_fd_sc_hd__conb_1
*CAP
1 an[2] 0.000458201
2 *1386:HI 0.000458201
3 an[2] *207:44 5.50106e-05
*RES
1 *1386:HI an[2] 47.3836 
*END

*D_NET *6 0.0011302
*CONN
*P an[3] O
*I *1387:HI O *D sky130_fd_sc_hd__conb_1
*CAP
1 an[3] 0.000494122
2 *1387:HI 0.000494122
3 an[3] *209:54 0.00014196
*RES
1 *1387:HI an[3] 47.57 
*END

*D_NET *7 0.00123265
*CONN
*P an[4] O
*I *1388:HI O *D sky130_fd_sc_hd__conb_1
*CAP
1 an[4] 0.000518537
2 *1388:HI 0.000518537
3 an[4] *209:54 1.01436e-05
4 an[4] *221:14 0.000185434
*RES
1 *1388:HI an[4] 48.0464 
*END

*D_NET *8 0.000940458
*CONN
*P an[5] O
*I *1389:HI O *D sky130_fd_sc_hd__conb_1
*CAP
1 an[5] 0.00039958
2 *1389:HI 0.00039958
3 an[5] *114:16 8.62876e-05
4 an[5] *221:14 5.50106e-05
*RES
1 *1389:HI an[5] 46.6171 
*END

*D_NET *9 0.00089518
*CONN
*P an[6] O
*I *1390:HI O *D sky130_fd_sc_hd__conb_1
*CAP
1 an[6] 0.000420085
2 *1390:HI 0.000420085
3 an[6] *221:14 5.50106e-05
*RES
1 *1390:HI an[6] 46.6171 
*END

*D_NET *10 0.000901742
*CONN
*P an[7] O
*I *1391:LO O *D sky130_fd_sc_hd__conb_1
*CAP
1 an[7] 0.000450871
2 *1391:LO 0.000450871
*RES
1 *1391:LO an[7] 47.3214 
*END

*D_NET *11 0.0182074
*CONN
*P clk I
*I *1593:A I *D sky130_fd_sc_hd__clkbuf_16
*CAP
1 clk 0.00301758
2 *1593:A 0
3 *11:23 0.00180208
4 *11:13 0.00481966
5 *11:13 *34:18 0.00287922
6 *11:13 *56:8 0
7 *11:13 *58:20 0
8 *11:13 *74:22 2.16467e-05
9 *11:13 *107:24 0.000109007
10 *11:13 *162:24 0.00407068
11 *11:13 *185:16 0
12 *11:13 *185:18 0.000131293
13 *11:13 *216:24 0
14 *11:23 *108:26 0.00021999
15 *11:23 *133:22 0.000843002
16 *11:23 *134:40 2.26497e-05
17 *11:23 *142:22 0.000123191
18 *11:23 *175:28 0.000124704
19 *11:23 *185:45 2.26497e-05
20 *11:23 *222:24 0
*RES
1 clk *11:13 45.4874 
2 *11:13 *11:23 35.284 
3 *11:23 *1593:A 23 
*END

*D_NET *12 0.00101944
*CONN
*P rst I
*I *1602:A I *D sky130_fd_sc_hd__clkbuf_4
*CAP
1 rst 0.000509722
2 *1602:A 0.000509722
*RES
1 rst *1602:A 48.8543 
*END

*D_NET *13 0.000688811
*CONN
*P seg[0] O
*I *1603:X O *D sky130_fd_sc_hd__buf_2
*CAP
1 seg[0] 0.000344406
2 *1603:X 0.000344406
*RES
1 *1603:X seg[0] 48.6592 
*END

*D_NET *14 0.000608431
*CONN
*P seg[1] O
*I *1604:X O *D sky130_fd_sc_hd__buf_2
*CAP
1 seg[1] 0.000299087
2 *1604:X 0.000299087
3 seg[1] *193:34 1.02561e-05
*RES
1 *1604:X seg[1] 47.2507 
*END

*D_NET *15 0.00121819
*CONN
*P seg[2] O
*I *1605:X O *D sky130_fd_sc_hd__buf_2
*CAP
1 seg[2] 0.000306114
2 *1605:X 6.60566e-05
3 *15:10 0.000372171
4 seg[2] *61:24 0
5 *15:10 *35:18 0.000238243
6 *15:10 *78:10 0.00023561
*RES
1 *1605:X *15:10 49.1382 
2 *15:10 seg[2] 0.9296 
*END

*D_NET *16 0.000699928
*CONN
*P seg[3] O
*I *1606:X O *D sky130_fd_sc_hd__buf_2
*CAP
1 seg[3] 0.000326288
2 *1606:X 0.000326288
3 seg[3] *35:18 2.47015e-05
4 seg[3] *78:10 2.26497e-05
*RES
1 *1606:X seg[3] 47.2507 
*END

*D_NET *17 0.00214042
*CONN
*P seg[4] O
*I *1607:X O *D sky130_fd_sc_hd__buf_2
*CAP
1 seg[4] 0.000578557
2 *1607:X 0.000430603
3 *17:10 0.00100916
4 seg[4] *161:24 7.59021e-08
5 *17:10 *99:10 0.000122024
*RES
1 *1607:X *17:10 44.4939 
2 *17:10 seg[4] 9.4448 
*END

*D_NET *18 0.000760924
*CONN
*P seg[5] O
*I *1608:X O *D sky130_fd_sc_hd__buf_2
*CAP
1 seg[5] 0.000356895
2 *1608:X 0.000356895
3 seg[5] *35:16 2.44846e-05
4 seg[5] *78:10 2.26497e-05
*RES
1 *1608:X seg[5] 47.2507 
*END

*D_NET *19 0.000574454
*CONN
*P seg[6] O
*I *1609:X O *D sky130_fd_sc_hd__buf_2
*CAP
1 seg[6] 0.000287227
2 *1609:X 0.000287227
*RES
1 *1609:X seg[6] 47.6028 
*END

*D_NET *20 0.00813647
*CONN
*I *1560:D I *D sky130_fd_sc_hd__dfrtp_4
*I *1420:Y O *D sky130_fd_sc_hd__nor2_1
*CAP
1 *1560:D 7.59794e-05
2 *1420:Y 0.00028656
3 *20:10 0.00131939
4 *20:8 0.00152997
5 *1560:D *21:6 6.44477e-05
6 *1560:D *200:34 0.000277896
7 *20:8 *1420:B 0.000394508
8 *20:8 *200:61 2.02872e-05
9 *20:10 *1426:B1 0.000117106
10 *20:10 *25:10 0.0013711
11 *20:10 *37:10 0.00177032
12 *20:10 *105:127 0
13 *20:10 *170:53 0
14 *20:10 *184:28 0.000104744
15 *20:10 *184:34 1.85495e-05
16 *20:10 *201:46 0.000137544
17 *20:10 *211:87 0.00014382
18 *20:10 *219:8 0.000504242
*RES
1 *1420:Y *20:8 42.9093 
2 *20:8 *20:10 39.585 
3 *20:10 *1560:D 41.0036 
*END

*D_NET *21 0.0151295
*CONN
*I *1570:D I *D sky130_fd_sc_hd__dfrtp_4
*I *1456:X O *D sky130_fd_sc_hd__buf_1
*CAP
1 *1570:D 0
2 *1456:X 0
3 *21:12 0.000119071
4 *21:6 0.00576703
5 *21:4 0.00564796
6 *21:6 *1560:RESET_B 0.00022191
7 *21:6 *200:10 1.5725e-05
8 *21:6 *200:34 7.96217e-05
9 *21:6 *208:34 0.00254058
10 *21:6 *210:48 0.000639073
11 *21:12 *181:105 3.41098e-05
12 *1560:D *21:6 6.44477e-05
*RES
1 *1456:X *21:4 23 
2 *21:4 *21:6 79.7086 
3 *21:6 *21:12 31.9057 
4 *21:12 *1570:D 23 
*END

*D_NET *22 0.00609551
*CONN
*I *1571:D I *D sky130_fd_sc_hd__dfrtp_4
*I *1459:Y O *D sky130_fd_sc_hd__nor3_1
*CAP
1 *1571:D 0
2 *1459:Y 0.000416537
3 *22:20 0.00057673
4 *22:16 0.000823479
5 *22:10 0.000663285
6 *22:10 *46:18 0.000246014
7 *22:10 *47:174 9.03364e-06
8 *22:10 *47:189 3.70411e-05
9 *22:10 *95:16 0.000518448
10 *22:16 *163:16 3.06971e-05
11 *22:16 *163:26 0.000135037
12 *22:16 *188:14 3.05299e-05
13 *22:20 *133:28 0.00132319
14 *22:20 *183:64 0.00127548
15 *22:20 *183:83 1.00084e-05
*RES
1 *1459:Y *22:10 46.7621 
2 *22:10 *22:16 33.9564 
3 *22:16 *22:20 33.1043 
4 *22:20 *1571:D 23 
*END

*D_NET *23 0.0154227
*CONN
*I *1572:D I *D sky130_fd_sc_hd__dfrtp_2
*I *1463:X O *D sky130_fd_sc_hd__buf_1
*CAP
1 *1572:D 0
2 *1463:X 0.000500703
3 *23:34 0.00115847
4 *23:22 0.00319471
5 *23:16 0.00323236
6 *23:8 0.00169682
7 *23:8 *1448:C 0.000601325
8 *23:16 *1394:B 0
9 *23:16 *85:10 0
10 *23:16 *88:24 0
11 *23:16 *129:120 0.00116257
12 *23:16 *133:28 0.000534036
13 *23:16 *176:22 0.000387341
14 *23:16 *183:83 0.000205422
15 *23:16 *194:8 0
16 *23:16 *207:112 0
17 *23:16 *213:33 0
18 *23:22 *1417:B1_N 0.000909207
19 *23:22 *1499:A 3.56355e-05
20 *23:22 *120:40 1.50018e-05
21 *23:34 *1572:CLK 7.14493e-05
22 *23:34 *40:12 6.6675e-05
23 *23:34 *186:80 0.00145362
24 *23:34 *203:14 0.000197363
*RES
1 *1463:X *23:8 44.815 
2 *23:8 *23:16 42.3221 
3 *23:16 *23:22 40.7686 
4 *23:22 *23:34 37.1436 
5 *23:34 *1572:D 23 
*END

*D_NET *24 0.0047661
*CONN
*I *1573:D I *D sky130_fd_sc_hd__dfrtp_1
*I *1467:X O *D sky130_fd_sc_hd__clkbuf_1
*CAP
1 *1573:D 0
2 *1467:X 0.000264159
3 *24:14 0.00101316
4 *24:8 0.00127732
5 *24:8 *57:14 0.000104888
6 *24:14 *1591:CLK 2.95423e-05
7 *24:14 *104:22 0.000214956
8 *24:14 *122:10 0.000181372
9 *24:14 *134:40 0
10 *24:14 *134:46 0.000363912
11 *24:14 *155:26 0.00113208
12 *24:14 *163:12 3.70094e-05
13 *24:14 *163:50 5.3304e-05
14 *24:14 *227:53 9.43928e-05
*RES
1 *1467:X *24:8 41.48 
2 *24:8 *24:14 39.7121 
3 *24:14 *1573:D 23 
*END

*D_NET *25 0.0111818
*CONN
*I *1574:D I *D sky130_fd_sc_hd__dfrtp_1
*I *1472:X O *D sky130_fd_sc_hd__clkbuf_1
*CAP
1 *1574:D 0.00010416
2 *1472:X 0.00013244
3 *25:10 0.00150027
4 *25:8 0.00152855
5 *1574:D *1574:CLK 1.32314e-05
6 *1574:D *205:8 6.97637e-05
7 *25:8 *1472:A 1.84917e-05
8 *25:8 *32:6 6.61006e-06
9 *25:10 *1564:RESET_B 0.00186577
10 *25:10 *1579:RESET_B 0.000240879
11 *25:10 *56:24 5.44888e-05
12 *25:10 *130:12 6.97776e-05
13 *25:10 *189:22 0.000295605
14 *25:10 *201:46 0.00101131
15 *25:10 *201:61 0.00166572
16 *25:10 *211:87 0.00123362
17 *20:10 *25:10 0.0013711
*RES
1 *1472:X *25:8 39.5743 
2 *25:8 *25:10 54.7271 
3 *25:10 *1574:D 40.0714 
*END

*D_NET *26 0.0202171
*CONN
*I *1575:D I *D sky130_fd_sc_hd__dfrtp_2
*I *1476:Y O *D sky130_fd_sc_hd__a211oi_2
*CAP
1 *1575:D 0
2 *1476:Y 0
3 *26:22 0.00103573
4 *26:16 0.00115457
5 *26:10 0.000613847
6 *26:6 0.00234584
7 *26:4 0.00185082
8 *26:6 *1476:A1 9.64943e-05
9 *26:6 *1476:A2 0.00104845
10 *26:6 *1476:C1 2.46906e-05
11 *26:6 *49:12 9.33721e-05
12 *26:6 *108:14 0.0040242
13 *26:6 *120:18 0.000377001
14 *26:6 *143:14 0.000186096
15 *26:6 *147:107 5.56356e-05
16 *26:10 *35:16 0.000264553
17 *26:10 *35:18 0.00157668
18 *26:10 *78:10 0.00188213
19 *26:22 *35:16 0.000556503
20 *26:22 *62:10 0
21 *26:22 *99:10 0.00155982
22 *26:22 *129:97 7.12002e-05
23 *26:22 *129:101 9.91481e-05
24 *26:22 *178:22 0.000277883
25 *26:22 *198:8 0.000801615
26 *26:22 *206:6 0.000220795
*RES
1 *1476:Y *26:4 23 
2 *26:4 *26:6 48.2643 
3 *26:6 *26:10 39.795 
4 *26:10 *26:16 31.5743 
5 *26:16 *26:22 49.4479 
6 *26:22 *1575:D 23 
*END

*D_NET *27 0.0112101
*CONN
*I *1576:D I *D sky130_fd_sc_hd__dfrtp_4
*I *1480:X O *D sky130_fd_sc_hd__clkbuf_1
*CAP
1 *1576:D 0.000845214
2 *1480:X 0.000836438
3 *27:16 0.0017303
4 *27:8 0.00172152
5 *1576:D *1478:A 0.000224356
6 *1576:D *1576:RESET_B 8.51062e-05
7 *1576:D *85:27 0.000508736
8 *1576:D *149:6 0.000223913
9 *1576:D *180:123 0.000222027
10 *1576:D *180:133 0.000213419
11 *27:8 *115:91 2.41737e-05
12 *27:8 *141:28 0.000640415
13 *27:16 *89:16 0.000948307
14 *27:16 *100:16 0.000765723
15 *27:16 *103:33 9.60874e-05
16 *27:16 *128:18 0.000131276
17 *27:16 *140:10 0.00106486
18 *27:16 *168:12 0.000928265
*RES
1 *1480:X *27:8 48.6264 
2 *27:8 *27:16 43.7307 
3 *27:16 *1576:D 40.4621 
*END

*D_NET *28 0.00336368
*CONN
*I *1577:D I *D sky130_fd_sc_hd__dfrtp_4
*I *1482:Y O *D sky130_fd_sc_hd__nor2_1
*CAP
1 *1577:D 0.00014136
2 *1482:Y 0.000481593
3 *28:12 0.000622953
4 *1577:D *105:140 0.000370654
5 *1577:D *165:37 0.000370654
6 *28:12 *202:20 0.000558989
7 *28:12 *226:58 0.00081748
*RES
1 *1482:Y *28:12 49.1443 
2 *28:12 *1577:D 43.075 
*END

*D_NET *29 0.0133809
*CONN
*I *1578:D I *D sky130_fd_sc_hd__dfrtp_4
*I *1485:X O *D sky130_fd_sc_hd__o211a_1
*CAP
1 *1578:D 0.000253396
2 *1485:X 0
3 *29:8 0.00215272
4 *29:6 0.00189932
5 *1578:D *183:28 8.1796e-05
6 *29:8 *1570:RESET_B 0
7 *29:8 *58:20 0.000438611
8 *29:8 *79:10 0.00278355
9 *29:8 *170:14 0.000417808
10 *29:8 *170:24 0.000308706
11 *29:8 *191:86 0.00499
12 an[1] *1578:D 5.50106e-05
*RES
1 *1485:X *29:6 38 
2 *29:6 *29:8 70.2214 
3 *29:8 *1578:D 42.9093 
*END

*D_NET *30 0.0181609
*CONN
*I *1579:D I *D sky130_fd_sc_hd__dfrtp_2
*I *1491:X O *D sky130_fd_sc_hd__buf_1
*CAP
1 *1579:D 2.38883e-05
2 *1491:X 0
3 *30:10 0.00141201
4 *30:8 0.00138812
5 *30:6 0.00292076
6 *30:4 0.00292076
7 *1579:D *57:14 2.64616e-05
8 *1579:D *60:6 5.56279e-05
9 *30:6 *132:8 0.000385694
10 *30:6 *158:30 0.00186626
11 *30:6 *179:132 0.00041809
12 *30:6 *190:75 2.02872e-05
13 *30:10 *1519:A1 0.00020461
14 *30:10 *105:140 0.0011255
15 *30:10 *165:37 0.00367498
16 *30:10 *186:70 0.000198835
17 *30:10 *186:72 0.000399217
18 *30:10 *187:138 0.000335135
19 *30:10 *191:24 0.000784663
*RES
1 *1491:X *30:4 23 
2 *30:4 *30:6 42.0707 
3 *30:6 *30:8 15 
4 *30:8 *30:10 49.445 
5 *30:10 *1579:D 38.6214 
*END

*D_NET *31 0.00799261
*CONN
*I *1561:D I *D sky130_fd_sc_hd__dfrtp_4
*I *1424:X O *D sky130_fd_sc_hd__clkbuf_1
*CAP
1 *1561:D 0
2 *1424:X 0.0004486
3 *31:14 0.00103567
4 *31:8 0.00148427
5 *31:8 *1413:D 0.000520311
6 *31:8 *1487:B 5.3304e-05
7 *31:14 *1561:CLK 0.000691273
8 *31:14 *1587:RESET_B 0.000189047
9 *31:14 *97:30 0.00043844
10 *31:14 *100:10 1.84226e-05
11 *31:14 *106:41 0.0001023
12 *31:14 *176:47 0.000469508
13 *31:14 *180:33 0.000692974
14 *31:14 *180:54 4.40271e-05
15 *31:14 *204:38 2.49836e-05
16 *31:14 *209:70 0.00100479
17 *31:14 *209:85 0.000705017
18 *31:14 *210:14 6.96783e-05
19 *31:14 *225:67 0
*RES
1 *1424:X *31:8 44.3386 
2 *31:8 *31:14 47.9357 
3 *31:14 *1561:D 23 
*END

*D_NET *32 0.00844221
*CONN
*I *1580:D I *D sky130_fd_sc_hd__dfrtp_2
*I *1495:X O *D sky130_fd_sc_hd__clkbuf_1
*CAP
1 *1580:D 0.000508787
2 *1495:X 0.00125248
3 *32:10 0.00185524
4 *32:6 0.00259894
5 *1580:D *99:14 4.36552e-05
6 *1580:D *147:168 0.000362289
7 *1580:D *175:83 4.07306e-05
8 *1580:D *202:72 6.87486e-05
9 *32:6 *1472:A 0.00049474
10 *32:10 *82:8 0
11 *32:10 *98:35 0
12 *32:10 *158:20 0.000135453
13 *32:10 *206:10 0.00107454
14 *25:8 *32:6 6.61006e-06
*RES
1 *1495:X *32:6 38.3907 
2 *32:6 *32:10 44.725 
3 *32:10 *1580:D 47.1971 
*END

*D_NET *33 0.0170374
*CONN
*I *1581:D I *D sky130_fd_sc_hd__dfrtp_2
*I *1498:Y O *D sky130_fd_sc_hd__a211oi_2
*CAP
1 *1581:D 0.000306864
2 *1498:Y 0.000342277
3 *33:22 0.00430883
4 *33:8 0.00434424
5 *1581:D *97:76 0.000669485
6 *1581:D *162:24 0.000114489
7 *1581:D *185:18 0.000194461
8 *33:8 *48:12 0.000151801
9 *33:8 *163:26 0.000110258
10 *33:8 *188:32 0.000461916
11 *33:8 *215:14 0.000323317
12 *33:8 *215:29 1.02561e-05
13 *33:22 *34:18 0
14 *33:22 *59:8 0.000111038
15 *33:22 *80:16 4.6502e-05
16 *33:22 *95:82 0.000254928
17 *33:22 *110:16 0.000246907
18 *33:22 *110:26 0.002668
19 *33:22 *127:24 0.00101851
20 *33:22 *128:18 0.000104065
21 *33:22 *130:34 0.000302313
22 *33:22 *147:16 0
23 *33:22 *147:99 0.000619899
24 *33:22 *162:24 0.000212548
25 *33:22 *180:137 0.000114474
*RES
1 *1498:Y *33:8 48.5332 
2 *33:8 *33:22 44.6635 
3 *33:22 *1581:D 47.1246 
*END

*D_NET *34 0.0222394
*CONN
*I *1582:D I *D sky130_fd_sc_hd__dfrtp_1
*I *1502:X O *D sky130_fd_sc_hd__buf_1
*CAP
1 *1582:D 1.66315e-05
2 *1502:X 0.000950266
3 *34:26 0.00109961
4 *34:24 0.00113554
5 *34:18 0.0024574
6 *34:6 0.0033551
7 *1582:D *170:37 2.23803e-06
8 *34:6 *1408:A 0.000479804
9 *34:6 *1466:B 0.00031221
10 *34:6 *224:18 0.000608607
11 *34:18 *74:22 0.000336425
12 *34:18 *107:24 0.000813336
13 *34:18 *129:120 3.47911e-05
14 *34:18 *130:34 0
15 *34:18 *146:10 0
16 *34:18 *149:23 0.000460886
17 *34:18 *160:10 0.000310545
18 *34:18 *168:29 0.000210292
19 *34:18 *191:60 0.000188164
20 *34:18 *217:31 0.000269316
21 *34:24 *108:26 5.86399e-06
22 *34:26 *160:10 0.00236527
23 *34:26 *160:16 0.000803372
24 *34:26 *162:24 0.000108422
25 *34:26 *207:30 0.0018752
26 *34:26 *217:29 0.000109835
27 *34:26 *217:31 0.00105105
28 *11:13 *34:18 0.00287922
29 *33:22 *34:18 0
*RES
1 *1502:X *34:6 41.2493 
2 *34:6 *34:18 43.655 
3 *34:18 *34:24 16.0989 
4 *34:24 *34:26 42.5782 
5 *34:26 *1582:D 38.2071 
*END

*D_NET *35 0.0181319
*CONN
*I *1583:D I *D sky130_fd_sc_hd__dfrtp_1
*I *1505:Y O *D sky130_fd_sc_hd__a221oi_2
*CAP
1 *1583:D 0
2 *1505:Y 0.000281568
3 *35:26 0.001555
4 *35:18 0.00285843
5 *35:16 0.00206554
6 *35:8 0.00104368
7 *35:8 *1505:C1 2.93431e-05
8 *35:16 *57:12 7.17297e-05
9 *35:16 *62:10 0.000179686
10 *35:16 *78:10 0.000533512
11 *35:16 *99:10 8.4397e-05
12 *35:16 *198:8 0.000616562
13 *35:18 *57:12 2.80291e-05
14 *35:18 *78:10 0.00129914
15 *35:18 *197:10 0.00402357
16 *35:26 *1431:A 1.9104e-05
17 *35:26 *1583:RESET_B 2.93431e-05
18 *35:26 *105:127 4.27329e-05
19 *35:26 *184:84 0.00068541
20 seg[3] *35:18 2.47015e-05
21 seg[5] *35:16 2.44846e-05
22 *15:10 *35:18 0.000238243
23 *26:10 *35:16 0.000264553
24 *26:10 *35:18 0.00157668
25 *26:22 *35:16 0.000556503
*RES
1 *1505:Y *35:8 41.9564 
2 *35:8 *35:16 28.1196 
3 *35:16 *35:18 58.0725 
4 *35:18 *35:26 39.6086 
5 *35:26 *1583:D 23 
*END

*D_NET *36 0.0119679
*CONN
*I *1584:D I *D sky130_fd_sc_hd__dfrtp_4
*I *1508:Y O *D sky130_fd_sc_hd__nor3_1
*CAP
1 *1584:D 0.00140263
2 *1508:Y 0.00113539
3 *36:16 0.00212966
4 *36:8 0.00186242
5 *1584:D *1534:A 0.000267774
6 *1584:D *1565:CLK 5.40377e-05
7 *1584:D *1565:RESET_B 0.000265767
8 *1584:D *43:8 0.000381447
9 *1584:D *107:24 0.000196487
10 *1584:D *186:48 9.7979e-05
11 *1584:D *216:22 0.000158028
12 *36:8 *47:111 0.0023284
13 *36:8 *81:8 0.000140308
14 *36:8 *146:8 0.000186686
15 *36:16 *47:111 0.000445118
16 *36:16 *101:12 0
17 *36:16 *202:76 0.000405952
18 *36:16 *213:33 0.0001389
19 *36:16 *222:10 0.000370952
*RES
1 *1508:Y *36:8 49.3693 
2 *36:8 *36:16 47.3793 
3 *36:16 *1584:D 48.6029 
*END

*D_NET *37 0.00711154
*CONN
*I *1585:D I *D sky130_fd_sc_hd__dfrtp_4
*I *1512:X O *D sky130_fd_sc_hd__clkbuf_1
*CAP
1 *1585:D 5.24815e-05
2 *1512:X 0.000664922
3 *37:10 0.00100451
4 *37:6 0.00161695
5 *1585:D *1585:CLK 6.17437e-06
6 *1585:D *1585:RESET_B 0.000139352
7 *1585:D *217:10 5.97104e-05
8 *37:6 *77:16 0.00128295
9 *37:6 *197:6 0.000481066
10 *37:10 *170:53 0
11 *37:10 *184:28 3.31127e-05
12 *37:10 *217:59 0
13 *20:10 *37:10 0.00177032
*RES
1 *1512:X *37:6 37.4379 
2 *37:6 *37:10 38.7386 
3 *37:10 *1585:D 39.5743 
*END

*D_NET *38 0.00283486
*CONN
*I *1586:D I *D sky130_fd_sc_hd__dfrtp_1
*I *1514:X O *D sky130_fd_sc_hd__o211a_1
*CAP
1 *1586:D 0.000428173
2 *1514:X 0.000471633
3 *38:8 0.000899806
4 *1586:D *111:6 5.5792e-05
5 *1586:D *114:16 9.54522e-05
6 *1586:D *135:22 0
7 *1586:D *136:24 0.000289704
8 *1586:D *137:10 1.73262e-05
9 *1586:D *208:30 0.000523944
10 *38:8 *115:54 5.30256e-05
*RES
1 *1514:X *38:8 43.8621 
2 *38:8 *1586:D 48.6264 
*END

*D_NET *39 0.0135469
*CONN
*I *1562:D I *D sky130_fd_sc_hd__dfrtp_4
*I *1428:X O *D sky130_fd_sc_hd__buf_1
*CAP
1 *1562:D 0.0007278
2 *1428:X 0
3 *39:14 0.00233798
4 *39:8 0.00344267
5 *39:4 0.00183249
6 *1562:D *1562:CLK 6.48467e-05
7 *1562:D *193:16 0.00072806
8 *39:8 *1497:B 0.00130751
9 *39:8 *74:22 0.000222132
10 *39:8 *112:12 0.000637253
11 *39:8 *115:54 0.000234007
12 *39:8 *170:24 0.000308946
13 *39:14 *1497:B 8.27026e-05
14 *39:14 *1497:D 1.14876e-05
15 *39:14 *115:54 0.000108907
16 *39:14 *135:22 0.000746309
17 *39:14 *156:10 0.000753835
*RES
1 *1428:X *39:4 23 
2 *39:4 *39:8 37.8036 
3 *39:8 *39:14 41.2243 
4 *39:14 *1562:D 48.0516 
*END

*D_NET *40 0.0066928
*CONN
*I *1563:D I *D sky130_fd_sc_hd__dfrtp_1
*I *1431:X O *D sky130_fd_sc_hd__clkbuf_1
*CAP
1 *1563:D 0
2 *1431:X 0
3 *40:12 0.0011578
4 *40:6 0.0011578
5 *40:12 *1499:A 0.000906927
6 *40:12 *1499:B 0.000264776
7 *40:12 *43:26 0.000146903
8 *40:12 *47:39 0.000817422
9 *40:12 *95:40 3.11094e-05
10 *40:12 *103:20 0.000135547
11 *40:12 *104:16 4.59544e-05
12 *40:12 *129:35 0
13 *40:12 *130:24 0.0008885
14 *40:12 *143:49 7.89883e-05
15 *40:12 *157:12 9.90353e-05
16 *40:12 *171:12 0.000316049
17 *40:12 *186:80 0.000270198
18 *40:12 *206:40 0.000256012
19 *40:12 *216:58 5.30949e-05
20 *23:34 *40:12 6.6675e-05
*RES
1 *1431:X *40:6 38 
2 *40:6 *40:12 49.2407 
3 *40:12 *1563:D 23 
*END

*D_NET *41 0.0126445
*CONN
*I *1564:D I *D sky130_fd_sc_hd__dfrtp_4
*I *1436:X O *D sky130_fd_sc_hd__clkbuf_1
*CAP
1 *1564:D 0
2 *1436:X 0.000514111
3 *41:14 0.00185464
4 *41:12 0.00185464
5 *41:10 0.000514111
6 *41:10 *46:18 0.000108681
7 *41:10 *105:48 0.000110922
8 *41:10 *153:6 8.06804e-06
9 *41:10 *207:24 0.00046787
10 *41:14 *105:110 0.000391515
11 *41:14 *105:112 0.00121426
12 *41:14 *105:121 0.000327839
13 *41:14 *184:108 7.25914e-05
14 *41:14 *207:76 0.00126289
15 *41:14 *213:61 0.000311537
16 *41:14 *216:52 0.00363086
*RES
1 *1436:X *41:10 45.4157 
2 *41:10 *41:12 15 
3 *41:12 *41:14 51.5993 
4 *41:14 *1564:D 23 
*END

*D_NET *42 0.0166386
*CONN
*I *1565:D I *D sky130_fd_sc_hd__dfrtp_2
*I *1439:Y O *D sky130_fd_sc_hd__nor3_1
*CAP
1 *1565:D 0
2 *1439:Y 0.000958854
3 *42:18 0.00100383
4 *42:10 0.00343488
5 *42:8 0.00243105
6 *42:6 0.000958854
7 *42:6 *57:14 2.31687e-05
8 *42:6 *226:27 0.00115487
9 *42:10 *1577:RESET_B 0.000605241
10 *42:10 *43:10 0.00074595
11 *42:10 *49:12 9.20311e-06
12 *42:10 *66:10 0
13 *42:10 *88:10 0.00184796
14 *42:10 *99:20 0.000648839
15 *42:10 *102:28 0.000307127
16 *42:10 *120:18 8.4047e-05
17 *42:10 *151:32 3.77126e-05
18 *42:10 *155:74 0.000165761
19 *42:10 *186:48 0
20 *42:10 *196:43 6.4393e-05
21 *42:10 *203:80 0.000384626
22 *42:10 *203:82 0.00114911
23 *42:18 *56:12 0.000484747
24 *42:18 *133:22 0.000138414
*RES
1 *1439:Y *42:6 36.485 
2 *42:6 *42:8 15 
3 *42:8 *42:10 65.9957 
4 *42:10 *42:18 45.515 
5 *42:18 *1565:D 38 
*END

*D_NET *43 0.0216328
*CONN
*I *1566:D I *D sky130_fd_sc_hd__dfrtp_2
*I *1443:X O *D sky130_fd_sc_hd__buf_1
*CAP
1 *1566:D 0
2 *1443:X 0.000774092
3 *43:26 0.00243736
4 *43:10 0.00419994
5 *43:8 0.00253667
6 *43:8 *186:48 0.000276834
7 *43:10 *88:10 0.00184247
8 *43:10 *98:35 6.29918e-05
9 *43:10 *99:20 0.00064671
10 *43:10 *130:34 0.000201676
11 *43:10 *147:160 0.00206248
12 *43:10 *151:22 7.05624e-05
13 *43:10 *151:32 0.000729783
14 *43:10 *216:8 0
15 *43:26 *47:39 0.000158386
16 *43:26 *54:18 0.00050196
17 *43:26 *102:28 0.00216516
18 *43:26 *104:16 0.000113096
19 *43:26 *128:28 0
20 *43:26 *130:34 0.000559426
21 *43:26 *135:22 0.000127703
22 *43:26 *136:24 0.000313411
23 *43:26 *151:32 0.000162094
24 *43:26 *156:10 0.000126408
25 *43:26 *158:20 0.000289291
26 *43:26 *182:39 0
27 *43:26 *191:24 0
28 *43:26 *227:69 0
29 *1584:D *43:8 0.000381447
30 *40:12 *43:26 0.000146903
31 *42:10 *43:10 0.00074595
*RES
1 *1443:X *43:8 49.5793 
2 *43:8 *43:10 54.9032 
3 *43:10 *43:26 42.4134 
4 *43:26 *1566:D 38 
*END

*D_NET *44 0.0178541
*CONN
*I *1567:D I *D sky130_fd_sc_hd__dfrtp_2
*I *1445:Y O *D sky130_fd_sc_hd__a211oi_1
*CAP
1 *1567:D 0
2 *1445:Y 0.000439785
3 *44:26 0.00622981
4 *44:10 0.00666959
5 *44:10 *1445:B1 1.24376e-05
6 *44:10 *151:22 0.000180434
7 *44:10 *176:47 2.12234e-05
8 *44:10 *190:69 4.75766e-05
9 *44:26 *1563:RESET_B 0.000233674
10 *44:26 *48:18 0.000149073
11 *44:26 *102:16 2.24182e-05
12 *44:26 *128:28 0.000108498
13 *44:26 *161:24 0
14 *44:26 *182:18 0
15 *44:26 *206:40 6.95958e-05
16 *44:26 *223:31 0.00366999
*RES
1 *1445:Y *44:10 45.0118 
2 *44:10 *44:26 49.2989 
3 *44:26 *1567:D 38 
*END

*D_NET *45 0.0108091
*CONN
*I *1568:D I *D sky130_fd_sc_hd__dfrtp_4
*I *1449:X O *D sky130_fd_sc_hd__clkbuf_1
*CAP
1 *1568:D 0.000532836
2 *1449:X 0.00081162
3 *45:20 0.00152201
4 *45:18 0.000989174
5 *45:16 0.00081162
6 *1568:D *1568:CLK 0.00042728
7 *1568:D *194:12 2.64616e-05
8 *1568:D *225:10 3.37192e-05
9 *1568:D *225:14 2.06822e-05
10 *45:16 *1451:B 0.000172846
11 *45:16 *1471:A 0.000232498
12 *45:16 *95:40 5.36519e-05
13 *45:16 *129:8 0.000137651
14 *45:16 *143:41 5.46873e-05
15 *45:16 *143:49 6.42666e-05
16 *45:16 *206:34 6.53942e-05
17 *45:16 *226:37 0.000111548
18 *45:20 *50:16 2.60152e-05
19 *45:20 *95:53 0.000541364
20 *45:20 *115:14 6.78463e-05
21 *45:20 *164:12 0.00127823
22 *45:20 *191:24 0.000263508
23 *45:20 *194:16 0.00256415
*RES
1 *1449:X *45:16 36.7129 
2 *45:16 *45:18 15 
3 *45:18 *45:20 35.3593 
4 *45:20 *1568:D 46.41 
*END

*D_NET *46 0.0182998
*CONN
*I *1569:D I *D sky130_fd_sc_hd__dfrtp_2
*I *1452:Y O *D sky130_fd_sc_hd__nor3_1
*CAP
1 *1569:D 0
2 *1452:Y 0.00023588
3 *46:26 0.00114044
4 *46:18 0.00242786
5 *46:16 0.00128742
6 *46:14 0.00222554
7 *46:10 0.00246142
8 *46:10 *1567:RESET_B 0.000109352
9 *46:10 *47:20 0.000520472
10 *46:10 *177:6 0.000520472
11 *46:14 *170:39 3.98818e-05
12 *46:14 *193:16 0.00272741
13 *46:18 *59:8 1.42282e-05
14 *46:18 *95:16 0.000115844
15 *46:18 *95:70 0.000130215
16 *46:18 *105:44 0.000395605
17 *46:18 *105:48 0.000925699
18 *46:18 *146:10 0.000597011
19 *46:18 *147:10 2.26406e-05
20 *46:18 *187:34 9.64377e-05
21 *46:18 *187:46 7.00178e-05
22 *46:18 *193:14 9.82961e-05
23 *46:18 *207:20 3.71198e-05
24 *46:26 *1526:A 0.000341317
25 *46:26 *1569:RESET_B 5.72739e-05
26 *46:26 *48:8 0.000424924
27 *46:26 *183:83 4.04435e-05
28 *46:26 *196:31 0.000881847
29 *22:10 *46:18 0.000246014
30 *41:10 *46:18 0.000108681
*RES
1 *1452:Y *46:10 45.4157 
2 *46:10 *46:14 47.0657 
3 *46:14 *46:16 15 
4 *46:16 *46:18 35.3593 
5 *46:18 *46:26 34.9116 
6 *46:26 *1569:D 23 
*END

*D_NET *47 0.0515217
*CONN
*I *1498:C1 I *D sky130_fd_sc_hd__a211oi_2
*I *1459:A I *D sky130_fd_sc_hd__nor3_1
*I *1420:B I *D sky130_fd_sc_hd__nor2_1
*I *1439:A I *D sky130_fd_sc_hd__nor3_1
*I *1587:D I *D sky130_fd_sc_hd__dfrtp_4
*I *1505:C1 I *D sky130_fd_sc_hd__a221oi_2
*I *1508:A I *D sky130_fd_sc_hd__nor3_1
*I *1476:C1 I *D sky130_fd_sc_hd__a211oi_2
*I *1482:A I *D sky130_fd_sc_hd__nor2_1
*I *1452:A I *D sky130_fd_sc_hd__nor3_1
*I *1419:X O *D sky130_fd_sc_hd__buf_4
*CAP
1 *1498:C1 0
2 *1459:A 0
3 *1420:B 0.000871165
4 *1439:A 0
5 *1587:D 0.000132165
6 *1505:C1 0.000111542
7 *1508:A 0
8 *1476:C1 0.000371952
9 *1482:A 0
10 *1452:A 0
11 *1419:X 0.00047597
12 *47:189 0.000416408
13 *47:174 0.000764923
14 *47:130 0.00304181
15 *47:111 0.00117688
16 *47:105 0.00470157
17 *47:99 0.00140885
18 *47:79 0.00150133
19 *47:64 0.0016072
20 *47:56 0.00230957
21 *47:39 0.00232539
22 *47:33 0.0015675
23 *47:31 0.00087667
24 *47:20 0.00250171
25 *47:12 0.00244952
26 *1420:B *1490:A 5.50106e-05
27 *1420:B *1490:C 0.000110999
28 *1420:B *200:61 9.41704e-05
29 *1476:C1 *108:14 0.000265521
30 *1476:C1 *147:107 9.947e-05
31 *1505:C1 *129:93 9.02048e-05
32 *1587:D *109:32 1.76087e-05
33 *1587:D *126:16 5.90786e-05
34 *1587:D *156:23 3.28224e-05
35 *47:12 *93:49 0.000384143
36 *47:12 *95:121 0
37 *47:12 *188:158 0
38 *47:12 *200:23 5.21788e-05
39 *47:20 *1520:B 0.000566678
40 *47:20 *55:12 0.000621124
41 *47:20 *177:6 9.00923e-05
42 *47:20 *187:69 0.000171593
43 *47:20 *205:18 9.49561e-05
44 *47:31 *144:10 0.000155292
45 *47:31 *154:14 7.90068e-05
46 *47:31 *157:12 0.00049038
47 *47:31 *177:6 0.00013961
48 *47:31 *205:18 9.68547e-05
49 *47:31 *206:26 0.000132142
50 *47:31 *206:34 0.000256099
51 *47:31 *227:73 0.000387176
52 *47:39 *1490:C 9.41704e-05
53 *47:39 *1577:RESET_B 0.000173647
54 *47:39 *103:14 6.17437e-06
55 *47:39 *104:16 0.00057695
56 *47:39 *130:24 0.000114277
57 *47:39 *226:37 0
58 *47:56 *1577:RESET_B 4.80423e-06
59 *47:56 *76:20 0.00043909
60 *47:56 *106:41 2.07228e-05
61 *47:56 *125:12 0.000149972
62 *47:56 *130:24 1.05658e-05
63 *47:56 *142:22 0.000220052
64 *47:56 *203:51 6.62991e-05
65 *47:64 *108:14 0.00045923
66 *47:64 *125:12 0.000174918
67 *47:64 *182:12 2.26497e-05
68 *47:64 *203:51 0.000516006
69 *47:64 *225:24 0.000110913
70 *47:79 *65:20 0.000808953
71 *47:79 *109:32 0.000215218
72 *47:79 *122:10 0.000295282
73 *47:79 *134:40 8.39787e-05
74 *47:79 *185:45 2.38193e-05
75 *47:99 *122:32 0.000625445
76 *47:99 *133:22 0.000403507
77 *47:99 *167:22 0.000511353
78 *47:99 *208:81 2.28878e-05
79 *47:99 *222:24 0.000441845
80 *47:99 *227:14 1.98075e-05
81 *47:105 *103:35 6.81559e-05
82 *47:105 *124:14 0.0006044
83 *47:105 *155:49 0
84 *47:105 *212:14 0
85 *47:111 *1508:C 0.000581348
86 *47:111 *81:8 6.81556e-05
87 *47:111 *98:39 0.00123355
88 *47:111 *202:76 0.000395547
89 *47:130 *1519:B1 0.000707671
90 *47:130 *98:39 0.00117898
91 *47:130 *136:12 9.22014e-05
92 *47:130 *167:22 0
93 *47:130 *180:101 2.11157e-05
94 *47:130 *191:24 0.000135584
95 *47:130 *202:76 0.000252749
96 *47:174 *1459:B 1.59071e-05
97 *47:174 *1459:C 0.00023844
98 *47:174 *93:49 0.000191276
99 *47:174 *95:6 0.000228043
100 *47:174 *95:16 0.000227473
101 *47:174 *188:158 0
102 *47:174 *200:23 1.3523e-05
103 *47:189 *1459:C 3.23857e-06
104 *47:189 *48:12 0.000271821
105 *47:189 *105:48 4.3461e-05
106 *47:189 *162:24 2.11157e-05
107 *47:189 *163:26 4.77164e-06
108 *47:189 *193:8 0.000360451
109 *47:189 *215:14 3.1493e-05
110 *20:8 *1420:B 0.000394508
111 *22:10 *47:174 9.03364e-06
112 *22:10 *47:189 3.70411e-05
113 *26:6 *1476:C1 2.46906e-05
114 *35:8 *1505:C1 2.93431e-05
115 *36:8 *47:111 0.0023284
116 *36:16 *47:111 0.000445118
117 *40:12 *47:39 0.000817422
118 *43:26 *47:39 0.000158386
119 *46:10 *47:20 0.000520472
*RES
1 *1419:X *47:12 47.3629 
2 *47:12 *47:20 46.755 
3 *47:20 *1452:A 23 
4 *47:20 *47:31 37.8686 
5 *47:31 *47:33 15 
6 *47:33 *47:39 32.5864 
7 *47:39 *1482:A 38 
8 *47:39 *47:56 21.3783 
9 *47:56 *47:64 28.195 
10 *47:64 *1476:C1 28.9036 
11 *47:64 *47:79 30.1111 
12 *47:79 *47:99 44.0469 
13 *47:99 *47:105 34.9418 
14 *47:105 *47:111 40.8071 
15 *47:111 *1508:A 23 
16 *47:105 *47:130 49.3435 
17 *47:130 *1505:C1 40.0507 
18 *47:79 *1587:D 39.9834 
19 *47:56 *1439:A 38 
20 *47:33 *1420:B 37.9143 
21 *47:12 *47:174 24.4457 
22 *47:174 *1459:A 23 
23 *47:174 *47:189 40.7093 
24 *47:189 *1498:C1 23 
*END

*D_NET *48 0.0201497
*CONN
*I *1560:RESET_B I *D sky130_fd_sc_hd__dfrtp_4
*I *1526:Y O *D sky130_fd_sc_hd__inv_2
*CAP
1 *1560:RESET_B 0.000142805
2 *1526:Y 0.000204479
3 *48:18 0.00110783
4 *48:14 0.00391523
5 *48:12 0.00388438
6 *48:8 0.00113865
7 *1560:RESET_B *200:10 0.000326398
8 *1560:RESET_B *200:34 0.000166561
9 *48:8 *1569:RESET_B 0.00021378
10 *48:12 *95:76 0.00104007
11 *48:12 *105:48 0.000517883
12 *48:12 *110:26 0.00031461
13 *48:12 *163:26 1.01793e-05
14 *48:12 *188:32 0.00104699
15 *48:12 *188:45 0.000171018
16 *48:14 *1583:RESET_B 3.34999e-05
17 *48:14 *189:72 8.48218e-05
18 *48:14 *189:80 0.00202005
19 *48:14 *215:12 0.000305633
20 *48:18 *114:16 0.00180247
21 *48:18 *129:16 0.000339457
22 *48:18 *157:12 0
23 *48:18 *206:40 0.000143373
24 *21:6 *1560:RESET_B 0.00022191
25 *33:8 *48:12 0.000151801
26 *44:26 *48:18 0.000149073
27 *46:26 *48:8 0.000424924
28 *47:189 *48:12 0.000271821
*RES
1 *1526:Y *48:8 42.9093 
2 *48:8 *48:12 44.0207 
3 *48:12 *48:14 39.2121 
4 *48:14 *48:18 39.795 
5 *48:18 *1560:RESET_B 21.7425 
*END

*D_NET *49 0.0061213
*CONN
*I *1561:RESET_B I *D sky130_fd_sc_hd__dfrtp_4
*I *1527:Y O *D sky130_fd_sc_hd__inv_2
*CAP
1 *1561:RESET_B 0
2 *1527:Y 2.43873e-05
3 *49:12 0.00214808
4 *49:6 0.00217247
5 *49:12 *1476:A1 4.67488e-05
6 *49:12 *1476:A2 0.000648688
7 *49:12 *66:10 0.000110913
8 *49:12 *120:18 3.83778e-05
9 *49:12 *143:14 0.000341578
10 *49:12 *147:107 0.00014318
11 *49:12 *225:24 0.000344307
12 *26:6 *49:12 9.33721e-05
13 *42:10 *49:12 9.20311e-06
*RES
1 *1527:Y *49:6 23.4971 
2 *49:6 *49:12 43.3786 
3 *49:12 *1561:RESET_B 15 
*END

*D_NET *50 0.0181776
*CONN
*I *1562:RESET_B I *D sky130_fd_sc_hd__dfrtp_4
*I *1528:Y O *D sky130_fd_sc_hd__inv_2
*CAP
1 *1562:RESET_B 0.000803687
2 *1528:Y 0.000637724
3 *50:16 0.0015588
4 *50:12 0.00183411
5 *50:8 0.00171672
6 *1562:RESET_B *1501:C 0.000590779
7 *1562:RESET_B *1558:A 7.6084e-05
8 *1562:RESET_B *105:127 1.07299e-05
9 *1562:RESET_B *105:140 2.22954e-05
10 *1562:RESET_B *165:35 0.000853099
11 *1562:RESET_B *184:8 0.000468407
12 *1562:RESET_B *184:10 0.000402642
13 *1562:RESET_B *184:12 0.000216721
14 *1562:RESET_B *184:14 6.48049e-05
15 *1562:RESET_B *184:108 0.00103565
16 *1562:RESET_B *194:16 2.56065e-05
17 *1562:RESET_B *217:59 0.000170036
18 *50:8 *132:8 0.000418325
19 *50:12 *51:10 0.0015724
20 *50:12 *115:14 5.09072e-05
21 *50:12 *115:85 0.00170555
22 *50:12 *179:148 2.70366e-05
23 *50:12 *186:10 9.87715e-05
24 *50:12 *186:21 3.49736e-05
25 *50:12 *186:72 0
26 *50:12 *200:123 6.12392e-05
27 *50:12 *206:10 0.000322239
28 *50:16 *105:140 0.000175639
29 *50:16 *115:14 0
30 *50:16 *186:72 0.000220484
31 *50:16 *186:74 0.000857266
32 *50:16 *186:80 0.000392279
33 *50:16 *191:24 0.000142953
34 *50:16 *194:16 0.00158359
35 *45:20 *50:16 2.60152e-05
*RES
1 *1528:Y *50:8 46.7207 
2 *50:8 *50:12 34.7689 
3 *50:12 *50:16 25.5407 
4 *50:16 *1562:RESET_B 44.7768 
*END

*D_NET *51 0.0122775
*CONN
*I *1563:RESET_B I *D sky130_fd_sc_hd__dfrtp_1
*I *1529:Y O *D sky130_fd_sc_hd__inv_2
*CAP
1 *1563:RESET_B 0.000768057
2 *1529:Y 0
3 *51:14 0.00223772
4 *51:10 0.00209028
5 *51:6 0.000620621
6 *1563:RESET_B *85:31 0.00076431
7 *1563:RESET_B *100:10 7.76267e-05
8 *1563:RESET_B *190:67 0.00103934
9 *1563:RESET_B *210:20 0.000598562
10 *1563:RESET_B *210:83 0
11 *1563:RESET_B *225:30 0.000824372
12 *51:10 *179:148 0.00081537
13 *51:10 *186:70 0
14 *51:10 *186:72 0
15 *51:10 *187:138 4.95487e-06
16 *51:14 *88:14 0.000469076
17 *51:14 *139:8 0.000100061
18 *51:14 *203:31 6.10714e-05
19 *44:26 *1563:RESET_B 0.000233674
20 *50:12 *51:10 0.0015724
*RES
1 *1529:Y *51:6 38 
2 *51:6 *51:10 35.9214 
3 *51:10 *51:14 33.2493 
4 *51:14 *1563:RESET_B 39.0907 
*END

*D_NET *52 0.0056459
*CONN
*I *1564:RESET_B I *D sky130_fd_sc_hd__dfrtp_4
*I *1530:Y O *D sky130_fd_sc_hd__inv_2
*CAP
1 *1564:RESET_B 0.000821929
2 *1530:Y 0.000358719
3 *52:8 0.00118065
4 *1564:RESET_B *1579:RESET_B 0.00085345
5 *1564:RESET_B *56:24 0.000194309
6 *1564:RESET_B *98:24 0
7 *1564:RESET_B *129:62 0
8 *1564:RESET_B *202:47 0
9 *1564:RESET_B *210:10 8.62783e-05
10 *1564:RESET_B *211:79 2.31116e-05
11 *1564:RESET_B *221:66 0
12 *52:8 *181:24 0.000139969
13 *52:8 *189:22 0.000121723
14 *25:10 *1564:RESET_B 0.00186577
*RES
1 *1530:Y *52:8 42.4329 
2 *52:8 *1564:RESET_B 40.1471 
*END

*D_NET *53 0.00533144
*CONN
*I *1565:RESET_B I *D sky130_fd_sc_hd__dfrtp_2
*I *1531:Y O *D sky130_fd_sc_hd__inv_2
*CAP
1 *1565:RESET_B 0.00124378
2 *1531:Y 4.99221e-05
3 *53:8 0.0012937
4 *1565:RESET_B *1466:C 0.000336919
5 *1565:RESET_B *1534:A 9.67842e-05
6 *1565:RESET_B *54:18 0.000179681
7 *1565:RESET_B *103:35 9.87053e-06
8 *1565:RESET_B *133:22 0.00017347
9 *1565:RESET_B *139:39 0.000164282
10 *1565:RESET_B *155:57 5.80693e-05
11 *1565:RESET_B *168:8 0.000329507
12 *1565:RESET_B *168:12 0.000506538
13 *1565:RESET_B *179:96 1.01436e-05
14 *1565:RESET_B *179:106 0.000465994
15 *1565:RESET_B *216:22 9.37053e-05
16 *1565:RESET_B *222:10 0
17 *53:8 *139:43 5.3304e-05
18 *1584:D *1565:RESET_B 0.000265767
*RES
1 *1531:Y *53:8 38.6214 
2 *53:8 *1565:RESET_B 45.8954 
*END

*D_NET *54 0.0239713
*CONN
*I *1566:RESET_B I *D sky130_fd_sc_hd__dfrtp_2
*I *1532:Y O *D sky130_fd_sc_hd__inv_2
*CAP
1 *1566:RESET_B 0.00139346
2 *1532:Y 4.99221e-05
3 *54:18 0.00664727
4 *54:8 0.00530373
5 *1566:RESET_B *1573:RESET_B 1.74874e-06
6 *1566:RESET_B *1591:RESET_B 0
7 *1566:RESET_B *61:24 0.000230661
8 *1566:RESET_B *94:30 4.21928e-05
9 *1566:RESET_B *120:40 0.000759732
10 *1566:RESET_B *165:16 0.000816087
11 *1566:RESET_B *166:36 5.93199e-05
12 *1566:RESET_B *190:103 0
13 *1566:RESET_B *209:58 0
14 *1566:RESET_B *225:43 5.02282e-05
15 *1566:RESET_B *227:69 1.17524e-06
16 *54:8 *124:8 5.3304e-05
17 *54:18 *1466:C 0.000344925
18 *54:18 *1596:A 4.82498e-05
19 *54:18 *95:53 0.000244158
20 *54:18 *102:16 0.00120872
21 *54:18 *103:35 0.00141248
22 *54:18 *115:14 0.000195117
23 *54:18 *115:85 0.000115145
24 *54:18 *122:32 1.40476e-05
25 *54:18 *139:39 0.000215782
26 *54:18 *144:10 0.000130988
27 *54:18 *158:20 0.00272231
28 *54:18 *179:75 0.000226697
29 *54:18 *182:71 0.000323003
30 *54:18 *191:24 0
31 *54:18 *203:18 0.000196599
32 *54:18 *203:31 0.000129592
33 *54:18 *206:10 0.000113817
34 *54:18 *206:26 0.000115647
35 *54:18 *221:66 0.000104447
36 *54:18 *222:24 1.90958e-05
37 *1565:RESET_B *54:18 0.000179681
38 *43:26 *54:18 0.00050196
*RES
1 *1532:Y *54:8 38.6214 
2 *54:8 *54:18 49.6896 
3 *54:18 *1566:RESET_B 45.4299 
*END

*D_NET *55 0.00828335
*CONN
*I *1567:RESET_B I *D sky130_fd_sc_hd__dfrtp_2
*I *1533:Y O *D sky130_fd_sc_hd__inv_2
*CAP
1 *1567:RESET_B 0.000330176
2 *1533:Y 4.76551e-05
3 *55:12 0.00320981
4 *55:10 0.00287963
5 *55:8 4.76551e-05
6 *1567:RESET_B *120:40 0.000266101
7 *1567:RESET_B *135:22 0
8 *1567:RESET_B *187:81 5.68937e-05
9 *1567:RESET_B *209:58 0
10 *55:8 *189:63 0.000115636
11 *55:8 *227:99 5.31905e-05
12 *55:12 *187:69 0.000312772
13 *55:12 *190:103 0.000233359
14 *46:10 *1567:RESET_B 0.000109352
15 *47:20 *55:12 0.000621124
*RES
1 *1533:Y *55:8 39.5536 
2 *55:8 *55:10 15 
3 *55:10 *55:12 44.9293 
4 *55:12 *1567:RESET_B 36.8979 
*END

*D_NET *56 0.0164841
*CONN
*I *1568:RESET_B I *D sky130_fd_sc_hd__dfrtp_4
*I *1534:Y O *D sky130_fd_sc_hd__inv_2
*CAP
1 *1568:RESET_B 6.39453e-05
2 *1534:Y 0.000126229
3 *56:24 0.000786189
4 *56:16 0.00210554
5 *56:14 0.0013833
6 *56:12 0.00320661
7 *56:10 0.00320661
8 *56:8 0.000126229
9 *1568:RESET_B *225:10 0.000183868
10 *56:12 *133:22 0.00067949
11 *56:16 *72:10 0.00148756
12 *56:16 *129:151 0
13 *56:16 *195:10 0.000190117
14 *56:16 *201:61 0.000627239
15 *56:16 *201:72 0.000356792
16 *56:16 *201:89 0.000475426
17 *56:24 *189:14 0
18 *56:24 *189:22 0.000293314
19 *56:24 *201:61 0.000452068
20 *56:24 *221:66 0
21 *1564:RESET_B *56:24 0.000194309
22 *11:13 *56:8 0
23 *25:10 *56:24 5.44888e-05
24 *42:18 *56:12 0.000484747
*RES
1 *1534:Y *56:8 40.2579 
2 *56:8 *56:10 15 
3 *56:10 *56:12 62.0807 
4 *56:12 *56:14 15 
5 *56:14 *56:16 42.7543 
6 *56:16 *56:24 46.1571 
7 *56:24 *1568:RESET_B 16.9782 
*END

*D_NET *57 0.0206879
*CONN
*I *1569:RESET_B I *D sky130_fd_sc_hd__dfrtp_2
*I *1535:Y O *D sky130_fd_sc_hd__inv_2
*CAP
1 *1569:RESET_B 0.000905878
2 *1535:Y 0.000662893
3 *57:20 0.00100191
4 *57:14 0.00262636
5 *57:12 0.00311238
6 *57:8 0.00124495
7 *1569:RESET_B *1526:A 0.000489201
8 *1569:RESET_B *183:83 0.00151945
9 *1569:RESET_B *196:31 5.61255e-06
10 *1569:RESET_B *196:33 0.000259265
11 *57:12 *99:10 0.00205459
12 *57:12 *197:10 0.00193048
13 *57:14 *1439:C 0.000587237
14 *57:14 *1539:A 0.000100069
15 *57:14 *60:6 0.000464058
16 *57:14 *76:30 2.02872e-05
17 *57:14 *120:30 0.000157933
18 *57:14 *190:35 5.3304e-05
19 *57:14 *210:10 0.000123693
20 *57:14 *226:27 0.00249153
21 *57:20 *83:12 0.000111106
22 *57:20 *190:31 0.000159823
23 *57:20 *190:61 2.40336e-05
24 *57:20 *213:33 4.68153e-05
25 *57:20 *213:45 9.66649e-06
26 *1579:D *57:14 2.64616e-05
27 *24:8 *57:14 0.000104888
28 *35:16 *57:12 7.17297e-05
29 *35:18 *57:12 2.80291e-05
30 *42:6 *57:14 2.31687e-05
31 *46:26 *1569:RESET_B 5.72739e-05
32 *48:8 *1569:RESET_B 0.00021378
*RES
1 *1535:Y *57:8 45.7679 
2 *57:8 *57:12 42.26 
3 *57:12 *57:14 51.5993 
4 *57:14 *57:20 32.61 
5 *57:20 *1569:RESET_B 21.9882 
*END

*D_NET *58 0.0324447
*CONN
*I *1570:RESET_B I *D sky130_fd_sc_hd__dfrtp_4
*I *1537:Y O *D sky130_fd_sc_hd__inv_2
*CAP
1 *1570:RESET_B 0.000455402
2 *1537:Y 2.11219e-05
3 *58:20 0.00996479
4 *58:10 0.00953051
5 *1570:RESET_B *1511:C 0
6 *1570:RESET_B *170:24 6.02116e-05
7 *1570:RESET_B *183:39 1.26547e-05
8 *58:20 *1507:B 0.000102921
9 *58:20 *74:22 0
10 *58:20 *76:34 0.000312909
11 *58:20 *79:10 0.000505251
12 *58:20 *80:18 0.000102245
13 *58:20 *107:24 0.00153988
14 *58:20 *116:14 0.000252486
15 *58:20 *131:14 0.000514199
16 *58:20 *142:22 0.00257437
17 *58:20 *162:24 0.00301784
18 *58:20 *170:12 0.00021222
19 *58:20 *170:14 0.000250105
20 *58:20 *170:73 0.000191591
21 *58:20 *179:36 0.000433675
22 *58:20 *189:38 0.000106332
23 *58:20 *189:53 0.000384015
24 *58:20 *189:63 0.000115972
25 *58:20 *191:86 0.000493912
26 *58:20 *196:8 0.000322346
27 *58:20 *199:24 0.000340503
28 *58:20 *227:99 0.00018864
29 *11:13 *58:20 0
30 *29:8 *1570:RESET_B 0
31 *29:8 *58:20 0.000438611
*RES
1 *1537:Y *58:10 46.3211 
2 *58:10 *58:20 44.0448 
3 *58:20 *1570:RESET_B 30.5607 
*END

*D_NET *59 0.00950013
*CONN
*I *1571:RESET_B I *D sky130_fd_sc_hd__dfrtp_4
*I *1538:Y O *D sky130_fd_sc_hd__inv_2
*CAP
1 *1571:RESET_B 0.000589903
2 *1538:Y 0
3 *59:8 0.00186295
4 *59:6 0.00127304
5 *1571:RESET_B *1517:C1 9.52416e-05
6 *1571:RESET_B *1571:CLK 0.000100061
7 *1571:RESET_B *97:22 0.000139377
8 *1571:RESET_B *213:45 0.00013774
9 *59:8 *1448:B 0.000284345
10 *59:8 *95:76 0.000742256
11 *59:8 *95:82 1.01003e-05
12 *59:8 *95:101 1.05441e-05
13 *59:8 *105:44 0.000190742
14 *59:8 *110:16 0.000426717
15 *59:8 *128:18 0.000545973
16 *59:8 *147:114 7.51933e-05
17 *59:8 *147:118 0.000345276
18 *59:8 *147:141 0.000344214
19 *59:8 *180:137 0.000124398
20 *59:8 *185:35 0.000910781
21 *59:8 *185:41 0.000382955
22 *59:8 *187:34 0.000783054
23 *33:22 *59:8 0.000111038
24 *46:18 *59:8 1.42282e-05
*RES
1 *1538:Y *59:6 38 
2 *59:6 *59:8 40.6414 
3 *59:8 *1571:RESET_B 23.8139 
*END

*D_NET *60 0.00458998
*CONN
*I *1572:RESET_B I *D sky130_fd_sc_hd__dfrtp_2
*I *1539:Y O *D sky130_fd_sc_hd__inv_2
*CAP
1 *1572:RESET_B 0.000174092
2 *1539:Y 0.0014469
3 *60:6 0.00162099
4 *1572:RESET_B *72:10 0.000288779
5 *1572:RESET_B *201:46 0.000195316
6 *1572:RESET_B *201:61 0.000203022
7 *60:6 *120:30 0.00014119
8 *1579:D *60:6 5.56279e-05
9 *57:14 *60:6 0.000464058
*RES
1 *1539:Y *60:6 41.2493 
2 *60:6 *1572:RESET_B 35.4271 
*END

*D_NET *61 0.0199716
*CONN
*I *1573:RESET_B I *D sky130_fd_sc_hd__dfrtp_1
*I *1540:Y O *D sky130_fd_sc_hd__inv_2
*CAP
1 *1573:RESET_B 0.00047731
2 *1540:Y 0.00057784
3 *61:24 0.00304234
4 *61:10 0.00492872
5 *61:8 0.00294154
6 *1573:RESET_B *1591:CLK 0.000129544
7 *1573:RESET_B *1591:D 5.52429e-05
8 *1573:RESET_B *1591:RESET_B 8.49574e-05
9 *1573:RESET_B *204:10 5.50106e-05
10 *61:8 *195:16 0.00060699
11 *61:10 *132:16 0.00552804
12 *61:10 *195:18 8.80477e-05
13 *61:24 *1591:RESET_B 9.3842e-05
14 *61:24 *120:40 1.50312e-05
15 *61:24 *130:24 0
16 *61:24 *135:22 0
17 *61:24 *165:16 0.000148047
18 *61:24 *166:16 1.05441e-05
19 *61:24 *227:69 0.000956174
20 seg[2] *61:24 0
21 *1566:RESET_B *1573:RESET_B 1.74874e-06
22 *1566:RESET_B *61:24 0.000230661
*RES
1 *1540:Y *61:8 45.7679 
2 *61:8 *61:10 74.9754 
3 *61:10 *61:24 40.6309 
4 *61:24 *1573:RESET_B 37.0739 
*END

*D_NET *62 0.0182677
*CONN
*I *1574:RESET_B I *D sky130_fd_sc_hd__dfrtp_1
*I *1541:Y O *D sky130_fd_sc_hd__inv_2
*CAP
1 *1574:RESET_B 0.000122671
2 *1541:Y 0.00037796
3 *62:10 0.00251426
4 *62:8 0.00276955
5 *1574:RESET_B *205:8 7.80291e-05
6 *62:8 *129:143 0.000228835
7 *62:8 *199:30 0.000245687
8 *62:10 *78:10 0.00590602
9 *62:10 *132:16 0.000710154
10 *62:10 *195:18 0.00513481
11 *62:10 *198:8 0
12 *26:22 *62:10 0
13 *35:16 *62:10 0.000179686
*RES
1 *1541:Y *62:8 46.2443 
2 *62:8 *62:10 97.6886 
3 *62:10 *1574:RESET_B 17.4546 
*END

*D_NET *63 0.0006911
*CONN
*I *1575:RESET_B I *D sky130_fd_sc_hd__dfrtp_2
*I *1542:Y O *D sky130_fd_sc_hd__inv_2
*CAP
1 *1575:RESET_B 0
2 *1542:Y 0.00017502
3 *63:10 0.00017502
4 *63:10 *129:93 0.000114232
5 *63:10 *129:143 0
6 *63:10 *180:101 0.000226829
*RES
1 *1542:Y *63:10 41.7079 
2 *63:10 *1575:RESET_B 15 
*END

*D_NET *64 0.00231161
*CONN
*I *1576:RESET_B I *D sky130_fd_sc_hd__dfrtp_4
*I *1543:Y O *D sky130_fd_sc_hd__inv_2
*CAP
1 *1576:RESET_B 0.000413313
2 *1543:Y 0.000413313
3 *1576:RESET_B *1478:A 5.75592e-05
4 *1576:RESET_B *1478:B 5.3304e-05
5 *1576:RESET_B *149:6 4.04982e-05
6 *1576:RESET_B *152:18 0.00084811
7 *1576:RESET_B *180:133 0.000400403
8 *1576:D *1576:RESET_B 8.51062e-05
*RES
1 *1543:Y *1576:RESET_B 34.0304 
*END

*D_NET *65 0.0169151
*CONN
*I *1577:RESET_B I *D sky130_fd_sc_hd__dfrtp_4
*I *1544:Y O *D sky130_fd_sc_hd__inv_2
*CAP
1 *1577:RESET_B 0.000910661
2 *1544:Y 0.000265125
3 *65:24 0.00182842
4 *65:20 0.00124402
5 *65:14 0.00118671
6 *65:8 0.00112558
7 *1577:RESET_B *102:28 0.000149785
8 *1577:RESET_B *151:32 0.000392984
9 *1577:RESET_B *196:43 3.95159e-06
10 *1577:RESET_B *202:12 8.05232e-05
11 *1577:RESET_B *208:12 0.000100061
12 *1577:RESET_B *226:31 0.000134756
13 *1577:RESET_B *226:37 0.000156321
14 *65:8 *139:43 0.000999433
15 *65:8 *141:28 2.43944e-05
16 *65:8 *208:111 0.000915092
17 *65:14 *125:18 0.000509975
18 *65:14 *147:149 0.000259956
19 *65:14 *208:94 6.00173e-05
20 *65:14 *208:111 7.5418e-05
21 *65:14 *219:49 0.00123176
22 *65:14 *222:24 0.000677508
23 *65:20 *134:26 0.000136486
24 *65:20 *134:40 0.000397734
25 *65:20 *185:45 0.000138219
26 *65:20 *222:24 0.000177535
27 *65:24 *1410:D 0.000599987
28 *65:24 *1447:A 5.3304e-05
29 *65:24 *85:27 6.22909e-05
30 *65:24 *97:30 9.41704e-05
31 *65:24 *126:8 0.00026353
32 *65:24 *204:38 0.000523002
33 *65:24 *205:78 0.000202106
34 *65:24 *222:34 2.81066e-05
35 *65:24 *222:59 0.000313504
36 *42:10 *1577:RESET_B 0.000605241
37 *47:39 *1577:RESET_B 0.000173647
38 *47:56 *1577:RESET_B 4.80423e-06
39 *47:79 *65:20 0.000808953
*RES
1 *1544:Y *65:8 49.1029 
2 *65:8 *65:14 37.91 
3 *65:14 *65:20 41.0614 
4 *65:20 *65:24 36.5843 
5 *65:24 *1577:RESET_B 35.9318 
*END

*D_NET *66 0.0231152
*CONN
*I *1578:RESET_B I *D sky130_fd_sc_hd__dfrtp_4
*I *1545:Y O *D sky130_fd_sc_hd__inv_2
*CAP
1 *1578:RESET_B 0.000162847
2 *1545:Y 0.000332435
3 *66:26 0.00152331
4 *66:20 0.00261953
5 *66:16 0.00157143
6 *66:10 0.00257776
7 *66:8 0.00259784
8 *1578:RESET_B *105:92 3.84966e-05
9 *1578:RESET_B *207:44 0.000135338
10 *66:8 *1545:A 0.000119897
11 *66:8 *156:6 9.41704e-05
12 *66:8 *156:23 2.3939e-05
13 *66:10 *96:33 3.51389e-05
14 *66:10 *114:16 0.000286421
15 *66:10 *120:26 0.000317844
16 *66:10 *129:16 5.05449e-05
17 *66:10 *134:14 0.000368513
18 *66:10 *136:24 0.000498964
19 *66:10 *142:28 0.00156523
20 *66:10 *143:12 0.00122263
21 *66:10 *156:10 0.000120578
22 *66:10 *190:10 1.05984e-05
23 *66:10 *196:43 0.000101886
24 *66:10 *203:80 6.7177e-06
25 *66:10 *205:18 0.000722793
26 *66:10 *205:57 0.000801463
27 *66:10 *208:30 0.00217328
28 *66:16 *145:6 0.000396836
29 *66:20 *135:22 0
30 *66:20 *209:58 0
31 *66:20 *218:8 0
32 *66:26 *114:12 0.00252785
33 *42:10 *66:10 0
34 *49:12 *66:10 0.000110913
*RES
1 *1545:Y *66:8 42.4329 
2 *66:8 *66:10 65.9957 
3 *66:10 *66:16 34.4329 
4 *66:16 *66:20 35.2171 
5 *66:20 *66:26 35.09 
6 *66:26 *1578:RESET_B 33.0554 
*END

*D_NET *67 0.0126445
*CONN
*I *1579:RESET_B I *D sky130_fd_sc_hd__dfrtp_2
*I *1546:Y O *D sky130_fd_sc_hd__inv_2
*CAP
1 *1579:RESET_B 0.00137142
2 *1546:Y 0.00113468
3 *67:12 0.00364707
4 *67:8 0.00341032
5 *1579:RESET_B *77:12 0
6 *1579:RESET_B *129:54 0
7 *1579:RESET_B *129:62 0
8 *1579:RESET_B *130:12 6.97776e-05
9 *1579:RESET_B *200:55 0
10 *1579:RESET_B *200:88 0
11 *1579:RESET_B *202:47 0
12 *1579:RESET_B *211:87 0.00115526
13 *1579:RESET_B *221:10 0
14 *1579:RESET_B *221:45 0
15 *67:8 *1407:B 0.000100477
16 *67:8 *1459:C 0.000230918
17 *67:8 *180:27 5.82853e-05
18 *67:12 *1558:A 0.000276334
19 *67:12 *184:92 9.56315e-05
20 *1564:RESET_B *1579:RESET_B 0.00085345
21 *25:10 *1579:RESET_B 0.000240879
*RES
1 *1546:Y *67:8 39.8407 
2 *67:8 *67:12 41.825 
3 *67:12 *1579:RESET_B 49.3029 
*END

*D_NET *68 0.017232
*CONN
*I *1580:RESET_B I *D sky130_fd_sc_hd__dfrtp_2
*I *1548:Y O *D sky130_fd_sc_hd__inv_2
*CAP
1 *1580:RESET_B 0.00187369
2 *1548:Y 0.000158538
3 *68:12 0.00187369
4 *68:10 0.00188361
5 *68:8 0.00204215
6 *1580:RESET_B *1433:A 0.000145171
7 *1580:RESET_B *1433:B 0.000397246
8 *1580:RESET_B *116:8 0.000225671
9 *1580:RESET_B *124:8 0.000209501
10 *1580:RESET_B *175:83 0.000997582
11 *1580:RESET_B *179:100 0.000224162
12 *1580:RESET_B *179:130 0.00105436
13 *1580:RESET_B *224:26 0.000137361
14 *68:8 *1436:A 6.39547e-05
15 *68:10 *84:51 0
16 *68:10 *91:18 0
17 *68:10 *115:114 0.00236056
18 *68:10 *115:127 0.000576998
19 *68:10 *116:14 5.59141e-05
20 *68:10 *148:20 0.00109059
21 *68:10 *153:10 0.000834739
22 *68:10 *181:103 0.000191118
23 *68:10 *191:86 0.000835383
*RES
1 *1548:Y *68:8 40.0507 
2 *68:8 *68:10 64.235 
3 *68:10 *68:12 15 
4 *68:12 *1580:RESET_B 45.3539 
*END

*D_NET *69 0.00355398
*CONN
*I *1581:RESET_B I *D sky130_fd_sc_hd__dfrtp_2
*I *1549:Y O *D sky130_fd_sc_hd__inv_2
*CAP
1 *1581:RESET_B 0.00057785
2 *1549:Y 0.00050311
3 *69:8 0.00108096
4 *1581:RESET_B *95:101 0.000547339
5 *1581:RESET_B *129:111 0
6 *1581:RESET_B *146:10 0
7 *1581:RESET_B *225:79 0.000189484
8 *69:8 *222:68 0.000655233
*RES
1 *1549:Y *69:8 45.2914 
2 *69:8 *1581:RESET_B 27.8221 
*END

*D_NET *70 0.0136237
*CONN
*I *1582:RESET_B I *D sky130_fd_sc_hd__dfrtp_1
*I *1550:Y O *D sky130_fd_sc_hd__inv_2
*CAP
1 *1582:RESET_B 0
2 *1550:Y 0.00010906
3 *70:10 0.00279685
4 *70:8 0.00290591
5 *70:8 *175:66 0.000140308
6 *70:10 *74:22 0.000516802
7 *70:10 *80:18 0
8 *70:10 *87:42 0.000408129
9 *70:10 *96:10 0.000349404
10 *70:10 *107:24 0.000410538
11 *70:10 *149:33 8.16253e-05
12 *70:10 *181:18 0.000593798
13 *70:10 *181:22 0.000126936
14 *70:10 *196:8 0
15 *70:10 *196:31 0.000141891
16 *70:10 *212:63 0.00288027
17 *70:10 *212:71 0.00169845
18 *70:10 *216:39 0.000463737
19 *70:10 *227:99 0
*RES
1 *1550:Y *70:8 39.5743 
2 *70:8 *70:10 78.6729 
3 *70:10 *1582:RESET_B 15 
*END

*D_NET *71 0.00563666
*CONN
*I *1583:RESET_B I *D sky130_fd_sc_hd__dfrtp_1
*I *1551:Y O *D sky130_fd_sc_hd__inv_2
*CAP
1 *1583:RESET_B 0.000319101
2 *1551:Y 0.00176163
3 *71:6 0.00208073
4 *1583:RESET_B *1431:A 0.000138859
5 *1583:RESET_B *129:16 0.000166145
6 *1583:RESET_B *182:39 0.000123211
7 *1583:RESET_B *206:40 0.000313135
8 *71:6 *1509:A 2.64616e-05
9 *71:6 *171:8 0.000644544
10 *35:26 *1583:RESET_B 2.93431e-05
11 *48:14 *1583:RESET_B 3.34999e-05
*RES
1 *1551:Y *71:6 44.1079 
2 *71:6 *1583:RESET_B 37.3018 
*END

*D_NET *72 0.0136865
*CONN
*I *1584:RESET_B I *D sky130_fd_sc_hd__dfrtp_4
*I *1552:Y O *D sky130_fd_sc_hd__inv_2
*CAP
1 *1584:RESET_B 0.000733664
2 *1552:Y 0.000690718
3 *72:10 0.00310349
4 *72:8 0.00306055
5 *1584:RESET_B *107:24 0.00011105
6 *72:8 *203:14 4.17001e-05
7 *72:10 *75:8 0.000676599
8 *72:10 *87:68 0.000160125
9 *72:10 *107:10 0
10 *72:10 *161:24 0.000127106
11 *72:10 *181:32 0.000466378
12 *72:10 *191:8 0
13 *72:10 *201:61 0.000231134
14 *72:10 *211:12 0.00100889
15 *72:10 *211:18 0.000788922
16 *72:10 *211:43 0.000709858
17 *1572:RESET_B *72:10 0.000288779
18 *56:16 *72:10 0.00148756
*RES
1 *1552:Y *72:8 45.7679 
2 *72:8 *72:10 70.2214 
3 *72:10 *1584:RESET_B 26.9832 
*END

*D_NET *73 0.0115385
*CONN
*I *1585:RESET_B I *D sky130_fd_sc_hd__dfrtp_4
*I *1553:Y O *D sky130_fd_sc_hd__inv_2
*CAP
1 *1585:RESET_B 0.00157693
2 *1553:Y 0
3 *73:10 0.00256414
4 *73:4 0.000987207
5 *1585:RESET_B *1489:A 0.000359654
6 *1585:RESET_B *1585:CLK 2.80512e-05
7 *1585:RESET_B *1601:A 0.000185724
8 *1585:RESET_B *157:8 0.000865565
9 *1585:RESET_B *184:24 0.000143059
10 *1585:RESET_B *217:10 0.000108143
11 *1585:RESET_B *217:12 0.000127036
12 *1585:RESET_B *217:14 0.000249776
13 *1585:RESET_B *218:18 0.000144221
14 *73:10 *1586:RESET_B 0.000147519
15 *73:10 *111:6 0.00250958
16 *73:10 *119:10 0.000548209
17 *73:10 *180:6 0.000657446
18 *73:10 *189:88 0.000196838
19 *1585:D *1585:RESET_B 0.000139352
*RES
1 *1553:Y *73:4 23 
2 *73:4 *73:10 49.8414 
3 *73:10 *1585:RESET_B 47.8011 
*END

*D_NET *74 0.0209498
*CONN
*I *1586:RESET_B I *D sky130_fd_sc_hd__dfrtp_1
*I *1554:Y O *D sky130_fd_sc_hd__inv_2
*CAP
1 *1586:RESET_B 0.000629015
2 *1554:Y 9.09198e-05
3 *74:22 0.00714981
4 *74:8 0.00661172
5 *1586:RESET_B *111:6 0.000308847
6 *1586:RESET_B *119:10 0
7 *1586:RESET_B *209:58 0.000232145
8 *1586:RESET_B *218:18 0.000111198
9 *74:8 *76:34 0.000343631
10 *74:8 *170:12 0.000346264
11 *74:22 *1497:B 0.000115782
12 *74:22 *96:10 0.000265727
13 *74:22 *107:24 0.000499392
14 *74:22 *110:26 0.000125804
15 *74:22 *115:54 0.000130115
16 *74:22 *137:24 0
17 *74:22 *142:22 5.06237e-05
18 *74:22 *160:10 0.000212458
19 *74:22 *160:16 0.000119659
20 *74:22 *161:24 0.000962049
21 *74:22 *162:24 0.000247511
22 *74:22 *168:29 0.000133003
23 *74:22 *183:16 0.000100831
24 *74:22 *207:12 4.85273e-05
25 *74:22 *207:30 0.000150156
26 *74:22 *212:63 0.00026427
27 *74:22 *212:71 0.000268368
28 *74:22 *214:10 0.000187416
29 *11:13 *74:22 2.16467e-05
30 *34:18 *74:22 0.000336425
31 *39:8 *74:22 0.000222132
32 *58:20 *74:22 0
33 *70:10 *74:22 0.000516802
34 *73:10 *1586:RESET_B 0.000147519
*RES
1 *1554:Y *74:8 42.5468 
2 *74:8 *74:22 49.8715 
3 *74:22 *1586:RESET_B 29.645 
*END

*D_NET *75 0.00736177
*CONN
*I *1587:RESET_B I *D sky130_fd_sc_hd__dfrtp_4
*I *1555:Y O *D sky130_fd_sc_hd__inv_2
*CAP
1 *1587:RESET_B 0.000202807
2 *1555:Y 0.00029065
3 *75:12 0.00163394
4 *75:8 0.00172178
5 *1587:RESET_B *156:23 9.1162e-05
6 *1587:RESET_B *176:47 0.000186846
7 *75:8 *120:60 9.3425e-05
8 *75:8 *181:28 0.000185755
9 *75:8 *181:32 6.16439e-05
10 *75:8 *211:18 0.0002429
11 *75:12 *1472:A 0.000726019
12 *75:12 *89:24 7.21494e-05
13 *75:12 *90:14 0.000987046
14 *31:14 *1587:RESET_B 0.000189047
15 *72:10 *75:8 0.000676599
*RES
1 *1555:Y *75:8 47.3007 
2 *75:8 *75:12 40.8721 
3 *75:12 *1587:RESET_B 34.5882 
*END

*D_NET *76 0.0164025
*CONN
*I *1588:RESET_B I *D sky130_fd_sc_hd__dfrtp_4
*I *1556:Y O *D sky130_fd_sc_hd__inv_2
*CAP
1 *1588:RESET_B 4.55778e-05
2 *1556:Y 0.000729457
3 *76:34 0.000569723
4 *76:30 0.00191627
5 *76:26 0.0029881
6 *76:20 0.00201495
7 *76:10 0.00114843
8 *1588:RESET_B *156:37 8.79516e-05
9 *1588:RESET_B *187:8 2.33744e-05
10 *1588:RESET_B *191:78 9.03364e-06
11 *76:10 *130:24 2.05503e-05
12 *76:10 *151:32 2.05503e-05
13 *76:10 *226:58 0.000427198
14 *76:20 *142:22 8.72322e-05
15 *76:20 *156:10 4.60157e-05
16 *76:20 *205:78 4.82586e-05
17 *76:26 *1468:A 0.000144494
18 *76:26 *92:18 0.000137284
19 *76:26 *141:8 9.88259e-05
20 *76:26 *190:31 0.000139566
21 *76:26 *196:33 0.000641806
22 *76:26 *205:61 5.58003e-05
23 *76:30 *83:8 9.62958e-05
24 *76:30 *190:35 0.000345049
25 *76:30 *190:41 0.000982281
26 *76:30 *226:12 0.000173218
27 *76:34 *1507:B 0.000544545
28 *76:34 *80:18 0
29 *76:34 *170:12 0.000408936
30 *76:34 *179:28 0.000336447
31 *76:34 *187:14 6.2088e-05
32 *76:34 *189:38 0.000937304
33 *47:56 *76:20 0.00043909
34 *57:14 *76:30 2.02872e-05
35 *58:20 *76:34 0.000312909
36 *74:8 *76:34 0.000343631
*RES
1 *1556:Y *76:10 47.5182 
2 *76:10 *76:20 32.6737 
3 *76:20 *76:26 41.3486 
4 *76:26 *76:30 38.0136 
5 *76:30 *76:34 35.9214 
6 *76:34 *1588:RESET_B 16.0254 
*END

*D_NET *77 0.0129806
*CONN
*I *1589:RESET_B I *D sky130_fd_sc_hd__dfrtp_4
*I *1557:Y O *D sky130_fd_sc_hd__inv_2
*CAP
1 *1589:RESET_B 0.000341558
2 *1557:Y 0.00040504
3 *77:16 0.00198733
4 *77:12 0.00222846
5 *77:8 0.000987722
6 *1589:RESET_B *79:14 0.000472739
7 *1589:RESET_B *183:6 0.000336907
8 *1589:RESET_B *183:8 0.00035099
9 *1589:RESET_B *188:14 9.41704e-05
10 *1589:RESET_B *190:18 9.87428e-05
11 *77:8 *200:84 8.06804e-06
12 *77:8 *221:8 9.07594e-05
13 *77:12 *129:54 0.000562276
14 *77:12 *200:47 0.000559758
15 *77:12 *200:55 0.000291276
16 *77:12 *221:10 3.61397e-05
17 *77:16 *1512:A 0.00111746
18 *77:16 *79:14 0.000223408
19 *77:16 *166:16 0.000349898
20 *77:16 *190:14 0.000408242
21 *77:16 *190:18 0.000546482
22 *77:16 *197:6 0.000200208
23 *1579:RESET_B *77:12 0
24 *37:6 *77:16 0.00128295
*RES
1 *1557:Y *77:8 42.9093 
2 *77:8 *77:12 30.9914 
3 *77:12 *77:16 40.6621 
4 *77:16 *1589:RESET_B 11.0304 
*END

*D_NET *78 0.015593
*CONN
*I *1590:RESET_B I *D sky130_fd_sc_hd__dfrtp_4
*I *1558:Y O *D sky130_fd_sc_hd__inv_2
*CAP
1 *1590:RESET_B 0.00051157
2 *1558:Y 0.000535293
3 *78:10 0.00221946
4 *78:8 0.00224318
5 *1590:RESET_B *189:8 0.000181801
6 seg[3] *78:10 2.26497e-05
7 seg[5] *78:10 2.26497e-05
8 *15:10 *78:10 0.00023561
9 *26:10 *78:10 0.00188213
10 *35:16 *78:10 0.000533512
11 *35:18 *78:10 0.00129914
12 *62:10 *78:10 0.00590602
*RES
1 *1558:Y *78:8 44.3386 
2 *78:8 *78:10 77.6164 
3 *78:10 *1590:RESET_B 23.3375 
*END

*D_NET *79 0.0202983
*CONN
*I *1591:RESET_B I *D sky130_fd_sc_hd__dfrtp_4
*I *1559:Y O *D sky130_fd_sc_hd__inv_2
*CAP
1 *1591:RESET_B 0.000446178
2 *1559:Y 0.000703961
3 *79:14 0.00385131
4 *79:12 0.00340514
5 *79:10 0.00102881
6 *79:8 0.00173277
7 *1591:RESET_B *190:103 0.000133974
8 *1591:RESET_B *209:58 0.00033404
9 *79:8 *1559:A 0.000278953
10 *79:8 *148:16 2.92911e-06
11 *79:8 *181:101 0.000306338
12 *79:10 *131:14 0.000863955
13 *79:10 *170:12 0.000552816
14 *79:10 *170:14 0.00143148
15 *79:10 *191:86 0.000320158
16 *79:14 *1498:A1 0.000181927
17 *79:14 *1512:A 0.000157643
18 *79:14 *81:18 6.68281e-05
19 *79:14 *183:8 1.23236e-05
20 *79:14 *183:10 0.000200965
21 *79:14 *183:16 2.57686e-05
22 *79:14 *188:14 9.62958e-05
23 *1566:RESET_B *1591:RESET_B 0
24 *1573:RESET_B *1591:RESET_B 8.49574e-05
25 *1589:RESET_B *79:14 0.000472739
26 *29:8 *79:10 0.00278355
27 *58:20 *79:10 0.000505251
28 *61:24 *1591:RESET_B 9.3842e-05
29 *77:16 *79:14 0.000223408
*RES
1 *1559:Y *79:8 47.6736 
2 *79:8 *79:10 45.2193 
3 *79:10 *79:12 15 
4 *79:12 *79:14 42.5471 
5 *79:14 *1591:RESET_B 38.2961 
*END

*D_NET *80 0.0147499
*CONN
*I *1588:D I *D sky130_fd_sc_hd__dfrtp_4
*I *1404:Y O *D sky130_fd_sc_hd__a21oi_1
*CAP
1 *1588:D 3.92478e-05
2 *1404:Y 0.000308992
3 *80:18 0.00135749
4 *80:16 0.00434867
5 *80:10 0.00333942
6 *1588:D *191:78 1.24298e-05
7 *80:10 *95:24 0.000308715
8 *80:10 *204:10 1.73824e-05
9 *80:10 *210:32 8.25811e-05
10 *80:10 *218:22 0.000123223
11 *80:16 *94:30 0.000536116
12 *80:16 *127:24 0
13 *80:16 *135:14 0.00032972
14 *80:18 *1507:B 0.000170826
15 *80:18 *142:22 0.000102692
16 *80:18 *189:38 0.000342808
17 *80:18 *196:8 0.000474529
18 *80:18 *207:12 9.86551e-06
19 *80:18 *216:39 0.00238167
20 *80:18 *226:8 0.000314811
21 *33:22 *80:16 4.6502e-05
22 *58:20 *80:18 0.000102245
23 *70:10 *80:18 0
24 *76:34 *80:18 0
*RES
1 *1404:Y *80:10 43.2096 
2 *80:10 *80:16 22.496 
3 *80:16 *80:18 40.4654 
4 *80:18 *1588:D 38.6214 
*END

*D_NET *81 0.0192357
*CONN
*I *1589:D I *D sky130_fd_sc_hd__dfrtp_4
*I *1402:Y O *D sky130_fd_sc_hd__nor2_1
*CAP
1 *1589:D 0
2 *1402:Y 0.000395494
3 *81:18 0.00209177
4 *81:14 0.00348175
5 *81:12 0.00211571
6 *81:8 0.00112123
7 *81:12 *1524:A2 0.000385726
8 *81:12 *91:10 0
9 *81:12 *117:10 1.67942e-05
10 *81:12 *169:10 0
11 *81:12 *199:16 0.00139909
12 *81:14 *84:32 0.00245529
13 *81:14 *116:26 0.000726856
14 *81:14 *117:10 0.00106545
15 *81:14 *148:10 0.00345094
16 *81:14 *159:8 3.53698e-05
17 *81:14 *169:10 0
18 *81:18 *1498:A1 1.21972e-05
19 *81:18 *183:10 6.93748e-05
20 *81:18 *183:16 0.000137356
21 *36:8 *81:8 0.000140308
22 *47:111 *81:8 6.81556e-05
23 *79:14 *81:18 6.68281e-05
*RES
1 *1402:Y *81:8 42.9093 
2 *81:8 *81:12 21.3668 
3 *81:12 *81:14 59.4811 
4 *81:14 *81:18 39.3445 
5 *81:18 *1589:D 23 
*END

*D_NET *82 0.00936156
*CONN
*I *1590:D I *D sky130_fd_sc_hd__dfrtp_4
*I *1400:X O *D sky130_fd_sc_hd__clkbuf_1
*CAP
1 *1590:D 0.000343467
2 *1400:X 0
3 *82:8 0.00193939
4 *82:6 0.00159592
5 *1590:D *1590:CLK 7.46513e-05
6 *1590:D *87:68 0.000785989
7 *82:8 *90:18 8.54825e-05
8 *82:8 *98:14 0.000191157
9 *82:8 *98:35 0.00266001
10 *82:8 *130:24 0.000228574
11 *82:8 *144:10 0
12 *82:8 *158:20 0.000594543
13 *82:8 *203:31 0.00028363
14 *82:8 *206:26 0.000578738
15 *32:10 *82:8 0
*RES
1 *1400:X *82:6 38 
2 *82:6 *82:8 43.8107 
3 *82:8 *1590:D 46.7207 
*END

*D_NET *83 0.00922165
*CONN
*I *1591:D I *D sky130_fd_sc_hd__dfrtp_4
*I *1394:Y O *D sky130_fd_sc_hd__xnor2_1
*CAP
1 *1591:D 0.00156942
2 *1394:Y 8.45944e-05
3 *83:12 0.00244711
4 *83:8 0.000962277
5 *1591:D *1591:CLK 0.000369855
6 *1591:D *163:16 2.92911e-06
7 *1591:D *183:96 0.000111634
8 *1591:D *183:103 9.87428e-05
9 *1591:D *210:32 0.000226907
10 *83:12 *93:49 0.000108164
11 *83:12 *175:18 0.000963074
12 *83:12 *183:96 9.21295e-05
13 *83:12 *190:31 0.000188729
14 *83:12 *213:45 0.000485844
15 *83:12 *214:31 0.0012476
16 *1573:RESET_B *1591:D 5.52429e-05
17 *57:20 *83:12 0.000111106
18 *76:30 *83:8 9.62958e-05
*RES
1 *1394:Y *83:8 39.0979 
2 *83:8 *83:12 40.4993 
3 *83:12 *1591:D 43.6729 
*END

*D_NET *84 0.0319042
*CONN
*I *1398:B1 I *D sky130_fd_sc_hd__o2bb2a_1
*I *1402:A I *D sky130_fd_sc_hd__nor2_1
*I *1393:B I *D sky130_fd_sc_hd__nand2_1
*I *1392:X O *D sky130_fd_sc_hd__and3_2
*CAP
1 *1398:B1 0
2 *1402:A 0
3 *1393:B 0
4 *1392:X 6.33642e-05
5 *84:51 0.00185308
6 *84:44 0.000894667
7 *84:40 0.00344291
8 *84:32 0.00167503
9 *84:30 0.00115561
10 *84:26 0.00170504
11 *84:14 0.00344684
12 *84:10 0.00191755
13 *84:8 6.33642e-05
14 *84:8 *115:30 0.000193742
15 *84:8 *174:14 0.000193742
16 *84:14 *106:14 0.00120111
17 *84:14 *155:34 0.000303724
18 *84:14 *171:18 0.000820198
19 *84:14 *206:40 0.000228903
20 *84:26 *1398:A2_N 5.53263e-05
21 *84:26 *1494:A 0.000659684
22 *84:26 *1511:C 0.000121569
23 *84:26 *105:52 0.000269989
24 *84:26 *160:16 0.000296482
25 *84:26 *161:24 0.000100139
26 *84:26 *171:18 0.000988072
27 *84:26 *189:63 4.72313e-05
28 *84:26 *227:99 0.000386192
29 *84:32 *116:26 0.000718078
30 *84:32 *117:10 0.00383314
31 *84:32 *148:10 0.00069056
32 *84:40 *169:10 0.000234815
33 *84:40 *181:103 0
34 *84:44 *189:38 0.000247094
35 *84:51 *91:18 0.000143578
36 *84:51 *130:34 4.81894e-05
37 *84:51 *142:12 0
38 *84:51 *148:20 0
39 *84:51 *169:10 0.00144989
40 *84:51 *181:103 0
41 *68:10 *84:51 0
42 *81:14 *84:32 0.00245529
*RES
1 *1392:X *84:8 40.61 
2 *84:8 *84:10 15 
3 *84:10 *84:14 37.3271 
4 *84:14 *84:26 32.77 
5 *84:26 *84:30 18.0036 
6 *84:30 *84:32 50.1493 
7 *84:32 *84:40 41.3929 
8 *84:40 *84:44 28.485 
9 *84:44 *1393:B 23 
10 *84:40 *84:51 42.7543 
11 *84:51 *1402:A 38 
12 *84:26 *1398:B1 23 
*END

*D_NET *85 0.0118697
*CONN
*I *1399:A I *D sky130_fd_sc_hd__and2_1
*I *1394:B I *D sky130_fd_sc_hd__xnor2_1
*I *1393:Y O *D sky130_fd_sc_hd__nand2_1
*CAP
1 *1399:A 0
2 *1394:B 0.000398652
3 *1393:Y 0.0012389
4 *85:31 0.000455405
5 *85:27 0.0019314
6 *85:10 0.00201112
7 *85:6 0.00137536
8 *1394:B *133:28 0
9 *1394:B *190:35 0.000191255
10 *1394:B *213:33 0.00053353
11 *1394:B *226:27 0.000188927
12 *85:6 *92:14 0.000121244
13 *85:6 *180:133 6.99492e-05
14 *85:6 *189:30 3.99538e-05
15 *85:6 *189:38 2.45549e-06
16 *85:6 *194:12 2.8914e-05
17 *85:10 *213:33 0.000213463
18 *85:27 *222:34 9.65021e-05
19 *85:27 *222:59 0.000538686
20 *85:31 *100:10 0.000318429
21 *85:31 *176:47 0.000368015
22 *85:31 *190:67 7.33681e-05
23 *85:31 *190:69 0.000179132
24 *85:31 *223:31 0.000148302
25 *85:31 *227:14 1.13812e-05
26 *1563:RESET_B *85:31 0.00076431
27 *1576:D *85:27 0.000508736
28 *23:16 *1394:B 0
29 *23:16 *85:10 0
30 *65:24 *85:27 6.22909e-05
*RES
1 *1393:Y *85:6 37.4379 
2 *85:6 *85:10 17.9621 
3 *85:10 *1394:B 47.5907 
4 *85:10 *85:27 48.7257 
5 *85:27 *85:31 29.935 
6 *85:31 *1399:A 23 
*END

*D_NET *86 0.0284528
*CONN
*I *1519:B1 I *D sky130_fd_sc_hd__a21oi_1
*I *1396:B I *D sky130_fd_sc_hd__nand2_2
*I *1395:Y O *D sky130_fd_sc_hd__nor2_2
*CAP
1 *1519:B1 0.000539966
2 *1396:B 0
3 *1395:Y 0
4 *86:31 0.000862701
5 *86:18 0.00266721
6 *86:16 0.0035738
7 *86:4 0.00122933
8 *1519:B1 *1505:B1 0.00107653
9 *1519:B1 *98:39 0.000233615
10 *1519:B1 *168:44 1.41129e-05
11 *1519:B1 *186:27 0.000992471
12 *1519:B1 *201:76 5.49301e-05
13 *1519:B1 *202:76 0.00118473
14 *86:16 *103:33 0
15 *86:16 *106:41 1.26519e-05
16 *86:16 *106:49 0.000619859
17 *86:16 *109:32 8.23293e-06
18 *86:16 *132:8 0.000269099
19 *86:16 *141:18 0.000108681
20 *86:16 *150:6 0.000271592
21 *86:16 *155:49 0.00081776
22 *86:16 *167:22 0.000147249
23 *86:16 *212:14 0.00137566
24 *86:16 *212:24 0
25 *86:18 *87:10 0.00456704
26 *86:18 *109:32 1.22262e-05
27 *86:18 *122:10 0
28 *86:18 *122:32 0.000262166
29 *86:18 *126:16 0.000906384
30 *86:18 *155:16 8.89036e-05
31 *86:18 *155:22 0.000250037
32 *86:18 *155:49 2.1212e-05
33 *86:18 *166:36 0.000132378
34 *86:18 *167:22 0.00014977
35 *86:18 *222:30 2.11157e-05
36 *86:18 *222:36 0.00485065
37 *86:18 *224:10 0.000164639
38 *86:31 *102:16 9.3761e-05
39 *86:31 *185:8 0.000108216
40 *86:31 *188:119 5.64582e-05
41 *47:130 *1519:B1 0.000707671
*RES
1 *1395:Y *86:4 23 
2 *86:4 *86:16 41.8975 
3 *86:16 *86:18 84.1311 
4 *86:18 *1396:B 38 
5 *86:4 *86:31 36.1314 
6 *86:31 *1519:B1 48.8929 
*END

*D_NET *87 0.0393718
*CONN
*I *1397:B I *D sky130_fd_sc_hd__nor2_2
*I *1403:A2 I *D sky130_fd_sc_hd__a21oi_1
*I *1524:B1_N I *D sky130_fd_sc_hd__a21boi_2
*I *1396:Y O *D sky130_fd_sc_hd__nand2_2
*CAP
1 *1397:B 0.000213228
2 *1403:A2 0
3 *1524:B1_N 0.000343808
4 *1396:Y 2.87288e-05
5 *87:68 0.00188968
6 *87:62 0.00269507
7 *87:42 0.000587913
8 *87:34 0.00149861
9 *87:26 0.00334179
10 *87:10 0.00325181
11 *87:8 0.00221188
12 *1397:B *1397:A 0.000518755
13 *1397:B *88:6 0.00065955
14 *1524:B1_N *1524:A1 0.000511176
15 *1524:B1_N *117:6 0.00107894
16 *87:8 *189:88 5.5792e-05
17 *87:10 *106:10 0
18 *87:10 *155:34 0.000107218
19 *87:10 *166:36 0.000191591
20 *87:10 *210:36 0
21 *87:10 *212:77 5.21127e-05
22 *87:10 *222:36 2.46399e-05
23 *87:10 *224:10 0.00330318
24 *87:26 *106:41 9.10611e-05
25 *87:26 *166:36 0.00160245
26 *87:26 *167:22 0.0015954
27 *87:26 *221:84 0.000205503
28 *87:26 *224:10 0.000136883
29 *87:26 *224:16 0.000186257
30 *87:26 *225:67 0.000186257
31 *87:34 *1403:B1 0.000682229
32 *87:34 *92:8 0.000596926
33 *87:34 *187:130 0.00179635
34 *87:34 *212:14 0.0002778
35 *87:34 *212:30 8.93567e-05
36 *87:42 *181:18 0.000410351
37 *87:42 *212:30 0.000277849
38 *87:62 *102:16 0
39 *87:62 *166:36 0.000251267
40 *87:62 *188:119 7.29755e-05
41 *87:62 *223:56 0.000261458
42 *87:62 *224:16 0.00118598
43 *87:62 *225:67 0.000816337
44 *87:68 *211:43 0.000162407
45 *1590:D *87:68 0.000785989
46 *70:10 *87:42 0.000408129
47 *72:10 *87:68 0.000160125
48 *86:18 *87:10 0.00456704
*RES
1 *1396:Y *87:8 38.6214 
2 *87:8 *87:10 63.7068 
3 *87:10 *87:26 39.3183 
4 *87:26 *87:34 44.7664 
5 *87:34 *87:42 38.5136 
6 *87:42 *1524:B1_N 35.0557 
7 *87:34 *1403:A2 23 
8 *87:26 *87:62 40.5614 
9 *87:62 *87:68 37.4129 
10 *87:68 *1397:B 45.7886 
*END

*D_NET *88 0.0297167
*CONN
*I *1518:A I *D sky130_fd_sc_hd__nor2_1
*I *1517:B1 I *D sky130_fd_sc_hd__a2111o_1
*I *1398:A2_N I *D sky130_fd_sc_hd__o2bb2a_1
*I *1397:Y O *D sky130_fd_sc_hd__nor2_2
*CAP
1 *1518:A 0
2 *1517:B1 0
3 *1398:A2_N 4.31589e-05
4 *1397:Y 0.000822168
5 *88:42 0.0016086
6 *88:40 0.00216642
7 *88:34 0.000894676
8 *88:30 0.0014729
9 *88:24 0.00134313
10 *88:14 0.00156431
11 *88:10 0.00204625
12 *88:6 0.00146803
13 *88:6 *1397:A 3.56364e-05
14 *88:6 *1458:B 9.88204e-05
15 *88:6 *121:10 0.000901273
16 *88:6 *200:123 0.000396431
17 *88:6 *223:43 0.00033875
18 *88:10 *102:28 0.00014977
19 *88:14 *1483:B 5.50106e-05
20 *88:14 *134:14 0.000261206
21 *88:14 *139:8 0.000102389
22 *88:14 *147:141 0.000110701
23 *88:14 *152:8 3.65917e-05
24 *88:14 *203:31 4.96717e-05
25 *88:14 *203:37 0.000164628
26 *88:14 *203:45 0.000862297
27 *88:14 *209:76 0.000555474
28 *88:24 *1518:B 5.79559e-05
29 *88:24 *109:12 0.000144494
30 *88:24 *181:24 2.69729e-05
31 *88:24 *207:112 6.38433e-05
32 *88:24 *213:33 0.000186206
33 *88:30 *105:12 1.93367e-05
34 *88:30 *109:12 0.000519278
35 *88:30 *162:24 0.000125494
36 *88:30 *181:24 0.000526793
37 *88:30 *187:20 0.000598375
38 *88:30 *190:41 0.000598384
39 *88:30 *201:105 0.00101512
40 *88:30 *217:31 0.000515025
41 *88:34 *1517:C1 0.000805251
42 *88:34 *188:38 0.000845486
43 *88:40 *188:38 3.00358e-05
44 *88:42 *89:8 4.13358e-05
45 *88:42 *118:12 0.00113699
46 *88:42 *169:10 3.76854e-05
47 *88:42 *181:103 0
48 *88:42 *181:105 0
49 *1397:B *88:6 0.00065955
50 *23:16 *88:24 0
51 *42:10 *88:10 0.00184796
52 *43:10 *88:10 0.00184247
53 *51:14 *88:14 0.000469076
54 *84:26 *1398:A2_N 5.53263e-05
*RES
1 *1397:Y *88:6 43.6314 
2 *88:6 *88:10 39.795 
3 *88:10 *88:14 45.16 
4 *88:14 *88:24 34.6814 
5 *88:24 *88:30 49.2614 
6 *88:30 *88:34 24.6736 
7 *88:34 *88:40 22.54 
8 *88:40 *88:42 36.7679 
9 *88:42 *1398:A2_N 38.6214 
10 *88:34 *1517:B1 23 
11 *88:24 *1518:A 23 
*END

*D_NET *89 0.0212744
*CONN
*I *1399:B I *D sky130_fd_sc_hd__and2_1
*I *1398:X O *D sky130_fd_sc_hd__o2bb2a_1
*CAP
1 *1399:B 0
2 *1398:X 9.07205e-05
3 *89:24 0.00116958
4 *89:16 0.00323401
5 *89:14 0.00206443
6 *89:12 0.00165446
7 *89:8 0.00174518
8 *89:8 *181:105 5.84705e-05
9 *89:12 *93:55 0.000431595
10 *89:12 *159:16 0.000823096
11 *89:12 *188:160 0.000738107
12 *89:16 *103:33 0
13 *89:16 *108:26 9.86551e-06
14 *89:16 *137:24 0.000639596
15 *89:16 *138:10 4.6674e-05
16 *89:16 *140:10 0.00151955
17 *89:16 *145:10 0.00352482
18 *89:16 *147:26 0.00100119
19 *89:16 *207:68 7.21237e-05
20 *89:16 *219:49 0
21 *89:16 *227:45 0.000310723
22 *89:24 *90:8 3.76854e-05
23 *89:24 *125:18 0.00089969
24 *89:24 *190:69 0.000141038
25 *27:16 *89:16 0.000948307
26 *75:12 *89:24 7.21494e-05
27 *88:42 *89:8 4.13358e-05
*RES
1 *1398:X *89:8 39.9057 
2 *89:8 *89:12 47.5421 
3 *89:12 *89:14 15 
4 *89:14 *89:16 63.5307 
5 *89:16 *89:24 46.3436 
6 *89:24 *1399:B 38 
*END

*D_NET *90 0.00651396
*CONN
*I *1400:A I *D sky130_fd_sc_hd__clkbuf_1
*I *1399:X O *D sky130_fd_sc_hd__and2_1
*CAP
1 *1400:A 0
2 *1399:X 0.000103468
3 *90:18 0.000533079
4 *90:14 0.00109488
5 *90:8 0.000665268
6 *90:8 *190:67 1.05658e-05
7 *90:8 *190:69 7.00754e-06
8 *90:8 *210:83 0
9 *90:18 *98:14 0.000193388
10 *90:18 *98:35 0.000807463
11 *90:18 *130:24 0.00031197
12 *90:18 *130:34 0.000179252
13 *90:18 *151:32 0.0014974
14 *75:12 *90:14 0.000987046
15 *82:8 *90:18 8.54825e-05
16 *89:24 *90:8 3.76854e-05
*RES
1 *1399:X *90:8 39.9057 
2 *90:8 *90:14 41.1029 
3 *90:14 *90:18 35.2171 
4 *90:18 *1400:A 23 
*END

*D_NET *91 0.0170731
*CONN
*I *1402:B I *D sky130_fd_sc_hd__nor2_1
*I *1401:Y O *D sky130_fd_sc_hd__a21oi_1
*CAP
1 *1402:B 0
2 *1401:Y 0
3 *91:18 0.000773739
4 *91:10 0.00346229
5 *91:8 0.00472735
6 *91:4 0.00203879
7 *91:8 *95:24 0.000271906
8 *91:8 *165:10 5.56279e-05
9 *91:8 *214:16 0.000322088
10 *91:8 *214:31 4.93812e-05
11 *91:10 *1524:A2 0.000133494
12 *91:10 *116:26 0.000882511
13 *91:10 *117:10 0.0042123
14 *68:10 *91:18 0
15 *81:12 *91:10 0
16 *84:51 *91:18 0.000143578
*RES
1 *1401:Y *91:4 23 
2 *91:4 *91:8 45.6364 
3 *91:8 *91:10 71.9821 
4 *91:10 *91:18 40.8336 
5 *91:18 *1402:B 38 
*END

*D_NET *92 0.0171568
*CONN
*I *1404:B1 I *D sky130_fd_sc_hd__a21oi_1
*I *1403:Y O *D sky130_fd_sc_hd__a21oi_1
*CAP
1 *1404:B1 0
2 *1403:Y 0.000400893
3 *92:22 0.000501482
4 *92:18 0.00159495
5 *92:14 0.00199817
6 *92:8 0.00130559
7 *92:14 *129:120 0
8 *92:14 *137:24 0.000225778
9 *92:14 *180:133 6.17437e-06
10 *92:14 *187:117 0.00012835
11 *92:14 *189:30 0.000828145
12 *92:14 *191:72 0
13 *92:14 *191:78 0
14 *92:14 *194:12 0.000136724
15 *92:14 *207:112 0.000345304
16 *92:14 *226:16 0.00124019
17 *92:18 *175:18 0.000138351
18 *92:18 *179:18 0.000399274
19 *92:18 *179:24 3.70835e-05
20 *92:18 *180:29 0.00183452
21 *92:18 *180:123 0.000454901
22 *92:18 *190:31 0.000142594
23 *92:18 *190:61 0.000131371
24 *92:18 *219:49 0.000115299
25 *92:18 *220:10 0.00119542
26 *92:22 *1404:A2 0.000181801
27 *92:22 *165:10 0.00156461
28 *92:22 *187:61 0.00139434
29 *76:26 *92:18 0.000137284
30 *85:6 *92:14 0.000121244
31 *87:34 *92:8 0.000596926
*RES
1 *1403:Y *92:8 44.815 
2 *92:8 *92:14 41.245 
3 *92:14 *92:18 49.655 
4 *92:18 *92:22 32.7729 
5 *92:22 *1404:B1 23 
*END

*D_NET *93 0.0275187
*CONN
*I *1513:A1 I *D sky130_fd_sc_hd__a21o_1
*I *1417:A1 I *D sky130_fd_sc_hd__a21bo_2
*I *1405:Y O *D sky130_fd_sc_hd__inv_2
*CAP
1 *1513:A1 0
2 *1417:A1 0.000258929
3 *1405:Y 0.00020125
4 *93:55 0.00171293
5 *93:51 0.00171293
6 *93:49 0.00301033
7 *93:18 0.0078915
8 *93:8 0.00482349
9 *1417:A1 *167:22 2.48383e-05
10 *1417:A1 *176:22 2.36786e-05
11 *1417:A1 *183:83 2.02529e-05
12 *93:8 *97:44 0.000170446
13 *93:8 *151:8 8.85189e-05
14 *93:8 *185:18 0.000217326
15 *93:18 *128:18 0
16 *93:49 *1515:A 0.000169247
17 *93:49 *137:24 0.000122496
18 *93:49 *167:22 9.5795e-05
19 *93:49 *175:18 0.000595502
20 *93:49 *188:148 0.000108877
21 *93:49 *200:23 0.000635188
22 *93:49 *214:31 0.000108164
23 *93:49 *220:10 4.12315e-05
24 *93:49 *220:18 7.17358e-06
25 *93:55 *1513:B1 0.000778224
26 *93:55 *1567:CLK 0.000691502
27 *93:55 *104:45 0.000337033
28 *93:55 *170:47 0.000608063
29 *93:55 *187:81 0.000265431
30 *93:55 *188:160 0.00139045
31 *93:55 *224:8 0.000292763
32 *47:12 *93:49 0.000384143
33 *47:174 *93:49 0.000191276
34 *83:12 *93:49 0.000108164
35 *89:12 *93:55 0.000431595
*RES
1 *1405:Y *93:8 43.9554 
2 *93:8 *93:18 32.6408 
3 *93:18 *1417:A1 47.0297 
4 *93:18 *93:49 43.9077 
5 *93:49 *93:51 15 
6 *93:51 *93:55 49.2379 
7 *93:55 *1513:A1 23 
*END

*D_NET *94 0.0137576
*CONN
*I *1416:A1 I *D sky130_fd_sc_hd__o211ai_2
*I *1406:X O *D sky130_fd_sc_hd__a21o_1
*CAP
1 *1416:A1 0
2 *1406:X 0.00101443
3 *94:30 0.00124614
4 *94:14 0.00254799
5 *94:10 0.00231628
6 *94:10 *1429:A1 0.000186041
7 *94:10 *113:8 1.46286e-05
8 *94:10 *137:24 0.000102058
9 *94:10 *208:48 0.000462582
10 *94:10 *209:14 0.000187363
11 *94:10 *211:108 2.06777e-05
12 *94:10 *219:23 0.000667788
13 *94:14 *122:10 0.000637127
14 *94:14 *155:26 0.000144926
15 *94:14 *163:12 0
16 *94:14 *222:36 0.00241801
17 *94:30 *95:32 4.87889e-05
18 *94:30 *127:24 1.05364e-05
19 *94:30 *135:14 0.000669227
20 *94:30 *135:22 4.60157e-05
21 *94:30 *165:16 1.748e-05
22 *94:30 *166:36 6.38739e-05
23 *94:30 *201:38 0.000177604
24 *94:30 *205:26 6.9908e-05
25 *94:30 *206:57 0.000109847
26 *1566:RESET_B *94:30 4.21928e-05
27 *80:16 *94:30 0.000536116
*RES
1 *1406:X *94:10 46.5314 
2 *94:10 *94:14 48.4225 
3 *94:14 *94:30 37.9383 
4 *94:30 *1416:A1 23 
*END

*D_NET *95 0.0449401
*CONN
*I *1437:A2 I *D sky130_fd_sc_hd__a21oi_1
*I *1430:A_N I *D sky130_fd_sc_hd__and3b_1
*I *1409:A I *D sky130_fd_sc_hd__and2_2
*I *1433:B I *D sky130_fd_sc_hd__nand2_1
*I *1434:B I *D sky130_fd_sc_hd__or2_1
*I *1438:C I *D sky130_fd_sc_hd__and3_1
*I *1451:C I *D sky130_fd_sc_hd__and4_4
*I *1407:X O *D sky130_fd_sc_hd__and4_2
*CAP
1 *1437:A2 0.000345929
2 *1430:A_N 8.74363e-05
3 *1409:A 0
4 *1433:B 0.000211599
5 *1434:B 0
6 *1438:C 0.000568144
7 *1451:C 0
8 *1407:X 0.00017469
9 *95:123 0.000433366
10 *95:121 0.00132238
11 *95:101 0.000967331
12 *95:82 0.0017746
13 *95:76 0.00167898
14 *95:70 0.00093832
15 *95:53 0.00156217
16 *95:49 0.00148334
17 *95:40 0.000284182
18 *95:32 0.00131274
19 *95:24 0.00236462
20 *95:16 0.00289171
21 *95:6 0.00228519
22 *1430:A_N *207:44 0.000406687
23 *1430:A_N *209:31 0.000265741
24 *1437:A2 *1486:A1 2.18506e-05
25 *1437:A2 *147:48 0.000153017
26 *1437:A2 *154:8 0.000484819
27 *1437:A2 *207:44 0.000115961
28 *1437:A2 *209:31 0.000488598
29 *1437:A2 *209:54 0.000346196
30 *1437:A2 *210:61 0.000139352
31 *1438:C *120:8 0.000301116
32 *1438:C *222:59 0.000197258
33 *95:16 *193:14 1.7403e-05
34 *95:16 *213:77 0.000490667
35 *95:24 *1449:A 2.46906e-05
36 *95:24 *165:10 0.00232516
37 *95:32 *127:24 2.86209e-05
38 *95:32 *129:35 2.64616e-05
39 *95:32 *135:22 0.000109024
40 *95:32 *201:38 2.17486e-05
41 *95:32 *205:26 0.000135037
42 *95:40 *129:8 9.67842e-05
43 *95:40 *129:16 1.38134e-05
44 *95:40 *129:35 0.000170645
45 *95:40 *206:40 8.04857e-05
46 *95:49 *104:16 0.000141675
47 *95:49 *104:39 0.00033306
48 *95:49 *129:35 6.2403e-05
49 *95:53 *115:14 0.00115253
50 *95:53 *115:20 0.000165482
51 *95:53 *164:12 0.00106655
52 *95:70 *96:27 0.000222953
53 *95:70 *187:46 0.000138718
54 *95:70 *213:77 0.00013598
55 *95:70 *213:94 0.000224321
56 *95:76 *105:44 9.77367e-05
57 *95:76 *105:48 0.00049676
58 *95:76 *110:26 0.000113929
59 *95:76 *188:45 0.00010904
60 *95:82 *97:44 4.31888e-05
61 *95:82 *110:16 0.00107248
62 *95:82 *127:12 0.000168722
63 *95:82 *185:35 0.000368705
64 *95:82 *185:41 0.000176865
65 *95:82 *188:45 0.000231631
66 *95:82 *188:70 0.00176793
67 *95:82 *221:84 5.3304e-05
68 *95:101 *1538:A 1.24376e-05
69 *95:101 *97:61 3.14377e-05
70 *95:101 *110:16 0.000617915
71 *95:101 *128:18 8.12539e-05
72 *95:101 *146:10 0
73 *95:101 *180:143 1.14154e-05
74 *95:101 *180:158 0.000237265
75 *95:101 *188:76 0
76 *95:101 *221:84 2.65505e-05
77 *95:101 *225:79 0.000612573
78 *95:121 *1430:C 0.000487124
79 *95:121 *1486:A2 0
80 *95:121 *188:158 0.000641006
81 *95:121 *200:23 0
82 *95:121 *213:77 0.000967138
83 *1580:RESET_B *1433:B 0.000397246
84 *1581:RESET_B *95:101 0.000547339
85 *22:10 *95:16 0.000518448
86 *33:22 *95:82 0.000254928
87 *40:12 *95:40 3.11094e-05
88 *45:16 *95:40 5.36519e-05
89 *45:20 *95:53 0.000541364
90 *46:18 *95:16 0.000115844
91 *46:18 *95:70 0.000130215
92 *47:12 *95:121 0
93 *47:174 *95:6 0.000228043
94 *47:174 *95:16 0.000227473
95 *48:12 *95:76 0.00104007
96 *54:18 *95:53 0.000244158
97 *59:8 *95:76 0.000742256
98 *59:8 *95:82 1.01003e-05
99 *59:8 *95:101 1.05441e-05
100 *80:10 *95:24 0.000308715
101 *91:8 *95:24 0.000271906
102 *94:30 *95:32 4.87889e-05
*RES
1 *1407:X *95:6 25.5271 
2 *95:6 *95:16 31.9443 
3 *95:16 *95:24 47.2314 
4 *95:24 *95:32 36.9393 
5 *95:32 *95:40 35.0129 
6 *95:40 *1451:C 23 
7 *95:32 *95:49 21.815 
8 *95:49 *95:53 44.725 
9 *95:53 *1438:C 32.5079 
10 *95:16 *95:70 23.0164 
11 *95:70 *95:76 35.7868 
12 *95:76 *95:82 46.5789 
13 *95:82 *1434:B 23 
14 *95:82 *95:101 49.6371 
15 *95:101 *1433:B 27.4329 
16 *95:70 *1409:A 23 
17 *95:6 *95:121 43.3786 
18 *95:121 *95:123 15 
19 *95:123 *1430:A_N 27.4329 
20 *95:123 *1437:A2 38.9086 
*END

*D_NET *96 0.0210009
*CONN
*I *1451:D I *D sky130_fd_sc_hd__and4_4
*I *1409:B I *D sky130_fd_sc_hd__and2_2
*I *1408:X O *D sky130_fd_sc_hd__and4_1
*CAP
1 *1451:D 0
2 *1409:B 2.20322e-05
3 *1408:X 0.000165132
4 *96:33 0.000237534
5 *96:27 0.00196133
6 *96:14 0.00190329
7 *96:10 0.00220059
8 *96:8 0.00220826
9 *1409:B *213:94 1.09903e-05
10 *96:8 *1408:A 5.3304e-05
11 *96:8 *1408:B 6.74169e-05
12 *96:8 *1408:D 0.000141089
13 *96:10 *107:24 0.000229249
14 *96:10 *109:8 0.000756066
15 *96:10 *149:23 0.000224006
16 *96:10 *149:33 0.000628489
17 *96:10 *160:10 0.000345393
18 *96:10 *168:29 0.00256038
19 *96:10 *185:18 0
20 *96:10 *212:63 0.00100527
21 *96:10 *217:31 0
22 *96:14 *103:6 0.000473374
23 *96:14 *213:94 0.000451882
24 *96:27 *103:6 0.00153333
25 *96:27 *103:14 0.000406311
26 *96:27 *163:56 0.000988102
27 *96:27 *201:30 0.000693301
28 *96:27 *213:94 0.000101216
29 *96:33 *129:16 1.05441e-05
30 *96:33 *129:35 2.11351e-05
31 *96:33 *142:28 0.000339893
32 *96:33 *226:37 0.000388764
33 *66:10 *96:33 3.51389e-05
34 *70:10 *96:10 0.000349404
35 *74:22 *96:10 0.000265727
36 *95:70 *96:27 0.000222953
*RES
1 *1408:X *96:8 41.48 
2 *96:8 *96:10 61.77 
3 *96:10 *96:14 20.3857 
4 *96:14 *1409:B 23.4971 
5 *96:14 *96:27 39.8543 
6 *96:27 *96:33 36.1314 
7 *96:33 *1451:D 23 
*END

*D_NET *97 0.0312073
*CONN
*I *1414:A2 I *D sky130_fd_sc_hd__o31a_1
*I *1445:C1 I *D sky130_fd_sc_hd__a211oi_1
*I *1450:A2 I *D sky130_fd_sc_hd__a21oi_2
*I *1446:B I *D sky130_fd_sc_hd__or2_1
*I *1447:B I *D sky130_fd_sc_hd__nand2_1
*I *1409:X O *D sky130_fd_sc_hd__and2_2
*CAP
1 *1414:A2 0
2 *1445:C1 0
3 *1450:A2 0
4 *1446:B 8.36444e-05
5 *1447:B 0
6 *1409:X 0.000200212
7 *97:76 0.000967326
8 *97:65 0.000722212
9 *97:61 0.00103642
10 *97:53 0.00131831
11 *97:44 0.00169815
12 *97:30 0.000582624
13 *97:22 0.00240547
14 *97:8 0.00360079
15 *1446:B *104:22 5.77823e-05
16 *1446:B *125:8 0.00022034
17 *1446:B *225:30 9.77405e-05
18 *97:8 *147:16 9.00418e-05
19 *97:8 *147:22 0.000163343
20 *97:8 *188:32 0.000191503
21 *97:8 *215:29 0.00053263
22 *97:22 *1517:C1 0.00051492
23 *97:22 *1571:CLK 5.40241e-05
24 *97:22 *104:22 0.000675842
25 *97:22 *125:8 8.56254e-05
26 *97:22 *202:6 0
27 *97:22 *202:12 0.000181748
28 *97:22 *213:45 3.42349e-05
29 *97:22 *227:53 4.03172e-05
30 *97:30 *204:38 0.00120055
31 *97:30 *209:70 0.000744215
32 *97:30 *222:59 4.67488e-05
33 *97:30 *223:31 0.000124574
34 *97:44 *105:12 0.000849262
35 *97:44 *105:29 0.000966551
36 *97:44 *110:16 6.02277e-06
37 *97:44 *127:12 0.000171181
38 *97:44 *151:8 8.62876e-05
39 *97:44 *162:24 0.000247786
40 *97:44 *185:18 0
41 *97:44 *187:20 0.000168149
42 *97:44 *188:32 8.72173e-05
43 *97:44 *188:45 0.000976927
44 *97:44 *188:70 0.00176184
45 *97:44 *201:105 2.22077e-05
46 *97:44 *215:29 0.000234263
47 *97:44 *221:94 0.000424609
48 *97:44 *227:34 6.38844e-05
49 *97:53 *185:18 0
50 *97:53 *221:94 3.70094e-05
51 *97:53 *225:79 1.12487e-05
52 *97:61 *115:104 0.000308253
53 *97:61 *128:18 0.000336732
54 *97:61 *146:10 0.00043844
55 *97:61 *175:66 1.03955e-05
56 *97:61 *221:94 5.3304e-05
57 *97:61 *225:75 0.000223906
58 *97:65 *1445:B1 5.3304e-05
59 *97:65 *124:14 0.000140313
60 *97:65 *151:14 0.000840003
61 *97:65 *151:22 1.24376e-05
62 *97:65 *188:95 0.000178517
63 *97:65 *188:101 0.000268424
64 *97:65 *221:84 0.000743587
65 *97:76 *1414:B1 0.000790093
66 *97:76 *102:8 0.000663229
67 *97:76 *162:24 0.000133015
68 *97:76 *185:16 0
69 *97:76 *185:18 0
70 *97:76 *225:79 0.000640974
71 *1571:RESET_B *97:22 0.000139377
72 *1581:D *97:76 0.000669485
73 *31:14 *97:30 0.00043844
74 *65:24 *97:30 9.41704e-05
75 *93:8 *97:44 0.000170446
76 *95:82 *97:44 4.31888e-05
77 *95:101 *97:61 3.14377e-05
*RES
1 *1409:X *97:8 45.1879 
2 *97:8 *97:22 45.5121 
3 *97:22 *97:30 47.7936 
4 *97:30 *1447:B 23 
5 *97:22 *1446:B 25.5271 
6 *97:8 *97:44 48.3886 
7 *97:44 *1450:A2 38 
8 *97:44 *97:53 0.849286 
9 *97:53 *97:61 39.6114 
10 *97:61 *97:65 35.155 
11 *97:65 *1445:C1 23 
12 *97:53 *97:76 42.5293 
13 *97:76 *1414:A2 23 
*END

*D_NET *98 0.0223754
*CONN
*I *1474:C I *D sky130_fd_sc_hd__and4_1
*I *1411:D I *D sky130_fd_sc_hd__or4_2
*I *1410:X O *D sky130_fd_sc_hd__and4_1
*CAP
1 *1474:C 0
2 *1411:D 2.95845e-05
3 *1410:X 0
4 *98:39 0.000732868
5 *98:37 0.000732868
6 *98:35 0.00144308
7 *98:24 0.000628856
8 *98:14 0.00178169
9 *98:6 0.00262549
10 *1411:D *1411:A 9.65021e-05
11 *1411:D *181:51 9.88259e-05
12 *98:14 *108:14 0.00135408
13 *98:24 *1606:A 5.52683e-05
14 *98:24 *129:62 0.000158588
15 *98:24 *200:88 0.000318656
16 *98:24 *210:10 2.76611e-06
17 *98:24 *211:79 4.35681e-06
18 *98:35 *130:34 0.000460907
19 *98:35 *147:160 0.000553611
20 *98:35 *151:22 0.001045
21 *98:35 *151:32 2.12195e-05
22 *98:35 *206:10 0
23 *98:39 *186:27 0.000432507
24 *98:39 *201:76 0.0032375
25 *1519:B1 *98:39 0.000233615
26 *1564:RESET_B *98:24 0
27 *32:10 *98:35 0
28 *43:10 *98:35 6.29918e-05
29 *47:111 *98:39 0.00123355
30 *47:130 *98:39 0.00117898
31 *82:8 *98:14 0.000191157
32 *82:8 *98:35 0.00266001
33 *90:18 *98:14 0.000193388
34 *90:18 *98:35 0.000807463
*RES
1 *1410:X *98:6 38 
2 *98:6 *98:14 48.0007 
3 *98:14 *98:24 41.1443 
4 *98:24 *1411:D 39.0979 
5 *98:6 *98:35 45.2193 
6 *98:35 *98:37 15 
7 *98:37 *98:39 36.3536 
8 *98:39 *1474:C 23 
*END

*D_NET *99 0.0228825
*CONN
*I *1414:A3 I *D sky130_fd_sc_hd__o31a_1
*I *1411:X O *D sky130_fd_sc_hd__or4_2
*CAP
1 *1414:A3 2.0995e-05
2 *1411:X 4.91417e-05
3 *99:22 0.0026726
4 *99:20 0.0029232
5 *99:14 0.000929582
6 *99:10 0.00223132
7 *99:8 0.00162248
8 *1414:A3 *1414:B1 1.14154e-05
9 *99:10 *108:10 0.000739626
10 *99:10 *129:66 0
11 *99:10 *161:24 2.35658e-05
12 *99:10 *178:22 0.000818295
13 *99:10 *197:10 7.58083e-05
14 *99:10 *221:45 0.000436953
15 *99:14 *147:168 0.000968294
16 *99:14 *180:101 5.3304e-05
17 *99:14 *195:16 0.000320911
18 *99:14 *202:72 0.00165171
19 *99:14 *202:93 8.40645e-05
20 *99:22 *1414:A1 0.000834475
21 *99:22 *1414:B1 0.000434788
22 *99:22 *102:8 0.000467569
23 *99:22 *180:71 0.000352421
24 *1580:D *99:14 4.36552e-05
25 *17:10 *99:10 0.000122024
26 *26:22 *99:10 0.00155982
27 *35:16 *99:10 8.4397e-05
28 *42:10 *99:20 0.000648839
29 *43:10 *99:20 0.00064671
30 *57:12 *99:10 0.00205459
*RES
1 *1411:X *99:8 38.6214 
2 *99:8 *99:10 52.9664 
3 *99:10 *99:14 37.0607 
4 *99:14 *99:20 38.9486 
5 *99:20 *99:22 50.6464 
6 *99:22 *1414:A3 23.4971 
*END

*D_NET *100 0.0126157
*CONN
*I *1413:C I *D sky130_fd_sc_hd__and4b_1
*I *1412:X O *D sky130_fd_sc_hd__and4b_1
*CAP
1 *1413:C 0.00026356
2 *1412:X 0
3 *100:16 0.0011541
4 *100:10 0.00192922
5 *100:6 0.00103868
6 *1413:C *1413:A_N 5.50049e-05
7 *1413:C *1413:D 0.000592409
8 *1413:C *227:26 8.73233e-05
9 *1413:C *227:34 0.000191497
10 *100:10 *176:47 0.000111852
11 *100:10 *204:21 0.000390389
12 *100:10 *204:38 0.00165664
13 *100:10 *207:76 0.000160182
14 *100:10 *209:58 0.000116869
15 *100:10 *210:20 6.58018e-05
16 *100:10 *223:31 0.000123705
17 *100:10 *225:30 0.00097473
18 *100:16 *103:33 0.000351215
19 *100:16 *128:18 0.000114474
20 *100:16 *168:12 0.000187117
21 *100:16 *179:75 0.000268079
22 *100:16 *189:30 0.00105526
23 *100:16 *194:12 0.000547363
24 *1563:RESET_B *100:10 7.76267e-05
25 *27:16 *100:16 0.000765723
26 *31:14 *100:10 1.84226e-05
27 *85:31 *100:10 0.000318429
*RES
1 *1412:X *100:6 38 
2 *100:6 *100:10 45.7814 
3 *100:10 *100:16 40.9343 
4 *100:16 *1413:C 44.815 
*END

*D_NET *101 0.00890715
*CONN
*I *1414:B1 I *D sky130_fd_sc_hd__o31a_1
*I *1413:X O *D sky130_fd_sc_hd__and4b_1
*CAP
1 *1414:B1 0.000399457
2 *1413:X 7.6394e-05
3 *101:12 0.00196787
4 *101:8 0.00164481
5 *1414:B1 *1414:A1 0.000834475
6 *1414:B1 *102:8 0.000427574
7 *101:8 *227:34 2.49531e-05
8 *101:12 *129:120 0.00224365
9 *101:12 *175:81 0
10 *101:12 *191:68 0
11 *101:12 *213:14 5.16731e-05
12 *101:12 *213:33 0
13 *101:12 *221:84 0
14 *1414:A3 *1414:B1 1.14154e-05
15 *36:16 *101:12 0
16 *97:76 *1414:B1 0.000790093
17 *99:22 *1414:B1 0.000434788
*RES
1 *1413:X *101:8 39.0979 
2 *101:8 *101:12 47.8943 
3 *101:12 *1414:B1 41.7464 
*END

*D_NET *102 0.0228543
*CONN
*I *1416:A2 I *D sky130_fd_sc_hd__o211ai_2
*I *1414:X O *D sky130_fd_sc_hd__o31a_1
*CAP
1 *1416:A2 0
2 *1414:X 0
3 *102:28 0.00181752
4 *102:16 0.00392691
5 *102:8 0.00446683
6 *102:4 0.00235744
7 *102:16 *123:12 0
8 *102:16 *150:12 0.000759007
9 *102:16 *176:47 3.03765e-05
10 *102:16 *185:8 0
11 *102:16 *188:119 0.000263985
12 *102:16 *223:31 4.47539e-05
13 *102:16 *223:35 0.000151468
14 *102:16 *225:67 0.000189891
15 *102:28 *104:16 5.41881e-05
16 *102:28 *130:34 0.000794283
17 *102:28 *136:24 0.00195026
18 *102:28 *163:56 0.000153344
19 *102:28 *226:37 0.00023891
20 *1414:B1 *102:8 0.000427574
21 *1577:RESET_B *102:28 0.000149785
22 *42:10 *102:28 0.000307127
23 *43:26 *102:28 0.00216516
24 *44:26 *102:16 2.24182e-05
25 *54:18 *102:16 0.00120872
26 *86:31 *102:16 9.3761e-05
27 *87:62 *102:16 0
28 *88:10 *102:28 0.00014977
29 *97:76 *102:8 0.000663229
30 *99:22 *102:8 0.000467569
*RES
1 *1414:X *102:4 23 
2 *102:4 *102:8 49.9243 
3 *102:8 *102:16 45.5013 
4 *102:16 *102:28 41.7699 
5 *102:28 *1416:A2 23 
*END

*D_NET *103 0.0251227
*CONN
*I *1504:A I *D sky130_fd_sc_hd__and2_2
*I *1416:B1 I *D sky130_fd_sc_hd__o211ai_2
*I *1415:X O *D sky130_fd_sc_hd__and4_1
*CAP
1 *1504:A 2.32701e-05
2 *1416:B1 0
3 *1415:X 0.00141538
4 *103:35 0.00146072
5 *103:33 0.00317619
6 *103:20 6.58385e-05
7 *103:14 0.00208323
8 *103:8 0.00375614
9 *103:6 0.00141538
10 *1504:A *185:12 5.3304e-05
11 *1504:A *199:24 5.3304e-05
12 *103:6 *213:94 6.68286e-05
13 *103:14 *145:10 5.91176e-05
14 *103:14 *201:30 0.000712592
15 *103:14 *227:53 5.6652e-05
16 *103:20 *104:16 0.000135547
17 *103:33 *1476:A1 7.60871e-06
18 *103:33 *1599:A 0.00023134
19 *103:33 *108:26 7.57281e-06
20 *103:33 *128:18 0.000128671
21 *103:33 *133:22 0.000215319
22 *103:33 *134:40 0.00119175
23 *103:33 *145:10 0.000720649
24 *103:33 *179:75 0.000327148
25 *103:33 *185:45 0.00135549
26 *103:33 *227:53 8.09411e-05
27 *103:35 *1442:C 0
28 *103:35 *1466:A 0.000306851
29 *103:35 *1596:A 9.83566e-06
30 *103:35 *115:91 0.000116314
31 *103:35 *115:100 0.000102638
32 *103:35 *122:32 0
33 *103:35 *124:14 0.000320975
34 *103:35 *155:49 0
35 *103:35 *179:75 5.3686e-05
36 *103:35 *179:106 0.000825775
37 *103:35 *212:14 0
38 *103:35 *212:24 8.48189e-05
39 *103:35 *213:22 9.28078e-06
40 *1565:RESET_B *103:35 9.87053e-06
41 *27:16 *103:33 9.60874e-05
42 *40:12 *103:20 0.000135547
43 *47:39 *103:14 6.17437e-06
44 *47:105 *103:35 6.81559e-05
45 *54:18 *103:35 0.00141248
46 *86:16 *103:33 0
47 *89:16 *103:33 0
48 *96:14 *103:6 0.000473374
49 *96:27 *103:6 0.00153333
50 *96:27 *103:14 0.000406311
51 *100:16 *103:33 0.000351215
*RES
1 *1415:X *103:6 47.9193 
2 *103:6 *103:8 15 
3 *103:8 *103:14 40.9964 
4 *103:14 *103:20 31.9057 
5 *103:20 *1416:B1 23 
6 *103:8 *103:33 44.7946 
7 *103:33 *103:35 35.5354 
8 *103:35 *1504:A 38.6214 
*END

*D_NET *104 0.0180004
*CONN
*I *1513:A2 I *D sky130_fd_sc_hd__a21o_1
*I *1417:A2 I *D sky130_fd_sc_hd__a21bo_2
*I *1416:Y O *D sky130_fd_sc_hd__o211ai_2
*CAP
1 *1513:A2 0
2 *1417:A2 0
3 *1416:Y 0
4 *104:45 0.000927522
5 *104:39 0.00171752
6 *104:26 0.00051699
7 *104:22 0.00120757
8 *104:16 0.00115895
9 *104:4 0.00125836
10 *104:16 *129:35 0.000145433
11 *104:16 *226:37 0.000265502
12 *104:22 *122:10 0.000212725
13 *104:22 *202:12 0.00182726
14 *104:22 *208:12 0.000564149
15 *104:22 *225:30 0.000187692
16 *104:22 *225:43 0.000175403
17 *104:26 *1417:B1_N 0.00124754
18 *104:26 *214:37 0.000770455
19 *104:39 *115:20 0.000177563
20 *104:39 *115:30 0.000813741
21 *104:39 *129:35 0.000346292
22 *104:39 *154:14 0.00155648
23 *104:39 *166:8 0.000113235
24 *104:45 *1567:CLK 0.000123934
25 *1446:B *104:22 5.77823e-05
26 *24:14 *104:22 0.000214956
27 *40:12 *104:16 4.59544e-05
28 *43:26 *104:16 0.000113096
29 *47:39 *104:16 0.00057695
30 *93:55 *104:45 0.000337033
31 *95:49 *104:16 0.000141675
32 *95:49 *104:39 0.00033306
33 *97:22 *104:22 0.000675842
34 *102:28 *104:16 5.41881e-05
35 *103:20 *104:16 0.000135547
*RES
1 *1416:Y *104:4 23 
2 *104:4 *104:16 44.1064 
3 *104:16 *104:22 38.5936 
4 *104:22 *104:26 28.9614 
5 *104:26 *1417:A2 23 
6 *104:4 *104:39 40.8514 
7 *104:39 *104:45 28.3814 
8 *104:45 *1513:A2 23 
*END

*D_NET *105 0.0426977
*CONN
*I *1432:A I *D sky130_fd_sc_hd__clkbuf_4
*I *1501:A I *D sky130_fd_sc_hd__and3_1
*I *1418:A I *D sky130_fd_sc_hd__inv_2
*I *1511:A I *D sky130_fd_sc_hd__and3_1
*I *1430:B I *D sky130_fd_sc_hd__and3b_1
*I *1427:B I *D sky130_fd_sc_hd__and3_1
*I *1494:A I *D sky130_fd_sc_hd__and3_1
*I *1448:B I *D sky130_fd_sc_hd__and3_1
*I *1423:B I *D sky130_fd_sc_hd__and3_1
*I *1417:X O *D sky130_fd_sc_hd__a21bo_2
*CAP
1 *1432:A 0.000563748
2 *1501:A 0
3 *1418:A 0
4 *1511:A 0
5 *1430:B 0
6 *1427:B 4.56987e-05
7 *1494:A 0.000398589
8 *1448:B 0.000401472
9 *1423:B 0.000473002
10 *1417:X 7.64608e-05
11 *105:140 0.00140887
12 *105:127 0.000829477
13 *105:121 0.0018647
14 *105:112 0.000685015
15 *105:110 0.0022919
16 *105:92 0.000530397
17 *105:77 0.00135774
18 *105:56 0.00118968
19 *105:52 0.00012015
20 *105:48 0.00159959
21 *105:44 0.00344377
22 *105:29 0.000931551
23 *105:12 0.00160334
24 *105:6 0.000834622
25 *1423:B *228:DIODE 5.83345e-06
26 *1423:B *108:30 7.47743e-05
27 *1423:B *131:12 3.35597e-05
28 *1423:B *187:22 5.3304e-05
29 *1427:B *180:6 2.95423e-05
30 *1432:A *115:6 0.0011496
31 *1432:A *179:156 5.3304e-05
32 *1432:A *189:22 0.000233635
33 *1448:B *168:14 0.000304813
34 *1448:B *180:137 0.000284345
35 *1494:A *201:14 3.53031e-05
36 *105:6 *167:10 4.05745e-05
37 *105:12 *167:10 6.17437e-06
38 *105:12 *187:20 3.33144e-05
39 *105:12 *201:105 0.000777894
40 *105:12 *215:29 0.000132632
41 *105:29 *125:18 0.000148185
42 *105:29 *162:24 0.000159869
43 *105:29 *187:20 0.000958699
44 *105:29 *191:78 0.000151066
45 *105:48 *110:26 0.0002607
46 *105:48 *147:10 2.33476e-05
47 *105:48 *193:14 0
48 *105:48 *201:14 0
49 *105:52 *1511:C 0.000103438
50 *105:56 *201:14 2.26406e-05
51 *105:77 *110:26 0.000924918
52 *105:77 *180:6 5.14826e-05
53 *105:77 *201:14 1.23514e-05
54 *105:92 *183:28 4.22436e-05
55 *105:92 *207:44 3.01852e-05
56 *105:92 *209:14 0
57 *105:92 *209:31 0.00026287
58 *105:110 *106:6 0.000760408
59 *105:110 *207:76 0.000654988
60 *105:110 *213:61 0.000161405
61 *105:112 *106:6 0.000303756
62 *105:112 *143:33 0.000120831
63 *105:121 *184:108 0.000135037
64 *105:127 *1501:C 0.000731278
65 *105:127 *165:35 0.000812133
66 *105:127 *170:53 1.13477e-05
67 *105:127 *184:84 2.64616e-05
68 *105:127 *201:46 0
69 *105:127 *217:59 0.000368415
70 *105:140 *165:35 4.92689e-05
71 *105:140 *165:37 0.000204216
72 *105:140 *184:112 6.7177e-06
73 *105:140 *186:72 0.000243596
74 *105:140 *186:74 0.00086648
75 *105:140 *186:80 0.000392279
76 *105:140 *191:24 0.000251021
77 *1562:RESET_B *105:127 1.07299e-05
78 *1562:RESET_B *105:140 2.22954e-05
79 *1577:D *105:140 0.000370654
80 *1578:RESET_B *105:92 3.84966e-05
81 *20:10 *105:127 0
82 *30:10 *105:140 0.0011255
83 *35:26 *105:127 4.27329e-05
84 *41:10 *105:48 0.000110922
85 *41:14 *105:110 0.000391515
86 *41:14 *105:112 0.00121426
87 *41:14 *105:121 0.000327839
88 *46:18 *105:44 0.000395605
89 *46:18 *105:48 0.000925699
90 *47:189 *105:48 4.3461e-05
91 *48:12 *105:48 0.000517883
92 *50:16 *105:140 0.000175639
93 *59:8 *1448:B 0.000284345
94 *59:8 *105:44 0.000190742
95 *84:26 *1494:A 0.000659684
96 *84:26 *105:52 0.000269989
97 *88:30 *105:12 1.93367e-05
98 *95:76 *105:44 9.77367e-05
99 *95:76 *105:48 0.00049676
100 *97:44 *105:12 0.000849262
101 *97:44 *105:29 0.000966551
*RES
1 *1417:X *105:6 24.0979 
2 *105:6 *105:12 30.2457 
3 *105:12 *1423:B 43.3857 
4 *105:12 *105:29 46.6543 
5 *105:29 *1448:B 45.4986 
6 *105:6 *105:44 20.4271 
7 *105:44 *105:48 35.9807 
8 *105:48 *105:52 18.0036 
9 *105:52 *105:56 15.3211 
10 *105:56 *1494:A 46.8139 
11 *105:56 *105:77 31.4782 
12 *105:77 *1427:B 23.6214 
13 *105:77 *105:92 38.4929 
14 *105:92 *1430:B 23 
15 *105:52 *1511:A 23 
16 *105:44 *105:110 47.6975 
17 *105:110 *105:112 13.7232 
18 *105:112 *1418:A 23 
19 *105:112 *105:121 18.9564 
20 *105:121 *105:127 36.2114 
21 *105:127 *1501:A 23 
22 *105:121 *105:140 41.97 
23 *105:140 *1432:A 36.0086 
*END

*D_NET *106 0.0240688
*CONN
*I *1445:B1 I *D sky130_fd_sc_hd__a211oi_1
*I *1419:A I *D sky130_fd_sc_hd__buf_4
*I *1418:Y O *D sky130_fd_sc_hd__inv_2
*CAP
1 *1445:B1 9.06103e-05
2 *1419:A 0
3 *1418:Y 0.00161713
4 *106:49 0.000466435
5 *106:41 0.00234866
6 *106:14 0.000298907
7 *106:10 0.00166898
8 *106:8 0.00334291
9 *106:6 0.00161713
10 *1445:B1 *151:22 2.02872e-05
11 *106:6 *143:33 0.000227473
12 *106:10 *1594:A 4.72559e-05
13 *106:10 *119:10 0.00015788
14 *106:10 *135:14 0.000212681
15 *106:10 *163:50 0.000587663
16 *106:10 *203:51 0.00021263
17 *106:10 *210:36 0.00141601
18 *106:10 *224:10 0.000430018
19 *106:14 *171:18 0.00119941
20 *106:41 *109:32 8.5466e-06
21 *106:41 *119:10 6.13347e-05
22 *106:41 *122:32 0.000115225
23 *106:41 *125:12 0.000362894
24 *106:41 *142:22 3.56514e-06
25 *106:41 *182:18 0.000417473
26 *106:41 *182:48 0.00166562
27 *106:41 *203:51 0.000471182
28 *106:41 *209:70 0.000170729
29 *106:41 *221:84 6.04679e-05
30 *106:41 *223:31 0.000679644
31 *106:41 *227:14 0.000158467
32 *106:49 *1413:D 0.000135037
33 *106:49 *155:49 0.000618939
34 *31:14 *106:41 0.0001023
35 *44:10 *1445:B1 1.24376e-05
36 *47:56 *106:41 2.07228e-05
37 *84:14 *106:14 0.00120111
38 *86:16 *106:41 1.26519e-05
39 *86:16 *106:49 0.000619859
40 *87:10 *106:10 0
41 *87:26 *106:41 9.10611e-05
42 *97:65 *1445:B1 5.3304e-05
43 *105:110 *106:6 0.000760408
44 *105:112 *106:6 0.000303756
*RES
1 *1418:Y *106:6 44.5843 
2 *106:6 *106:8 15 
3 *106:8 *106:10 35.0071 
4 *106:10 *106:14 28.485 
5 *106:14 *1419:A 23 
6 *106:8 *106:41 45.3532 
7 *106:41 *106:49 40.1707 
8 *106:49 *1445:B1 39.595 
*END

*D_NET *107 0.0196825
*CONN
*I *1423:A I *D sky130_fd_sc_hd__and3_1
*I *1421:Y O *D sky130_fd_sc_hd__nand2_1
*CAP
1 *1423:A 0
2 *1421:Y 8.57471e-05
3 *107:24 0.00644063
4 *107:10 0.00652638
5 *107:10 *191:8 3.89868e-05
6 *107:24 *1534:A 0.000303628
7 *107:24 *133:22 0.0008447
8 *107:24 *142:22 0.000772619
9 *107:24 *149:33 0.00010575
10 *107:24 *162:24 0
11 *107:24 *181:18 0.000161352
12 *107:24 *207:12 1.84428e-05
13 *107:24 *216:22 0.00045068
14 *107:24 *216:39 2.46922e-05
15 *1584:D *107:24 0.000196487
16 *1584:RESET_B *107:24 0.00011105
17 *11:13 *107:24 0.000109007
18 *34:18 *107:24 0.000813336
19 *58:20 *107:24 0.00153988
20 *70:10 *107:24 0.000410538
21 *72:10 *107:10 0
22 *74:22 *107:24 0.000499392
23 *96:10 *107:24 0.000229249
*RES
1 *1421:Y *107:10 47.7296 
2 *107:10 *107:24 45.6272 
3 *107:24 *1423:A 38 
*END

*D_NET *108 0.0175649
*CONN
*I *1423:C I *D sky130_fd_sc_hd__and3_1
*I *228:DIODE I *D sky130_fd_sc_hd__diode_2
*I *1422:X O *D sky130_fd_sc_hd__or2_1
*CAP
1 *1423:C 2.08976e-05
2 *228:DIODE 0.000128804
3 *1422:X 0.000452235
4 *108:30 0.000286191
5 *108:26 0.00205911
6 *108:14 0.00373575
7 *108:12 0.00181313
8 *108:10 0.000452235
9 *228:DIODE *131:12 0.000122995
10 *1423:C *131:12 1.28305e-05
11 *108:10 *221:45 0.000110184
12 *108:14 *129:62 9.65021e-05
13 *108:26 *160:10 5.09165e-05
14 *108:26 *175:28 0.000591402
15 *108:26 *207:12 0.000187242
16 *108:26 *217:31 4.82774e-05
17 *108:30 *131:12 0.000229686
18 *1423:B *228:DIODE 5.83345e-06
19 *1423:B *108:30 7.47743e-05
20 *1476:C1 *108:14 0.000265521
21 *11:23 *108:26 0.00021999
22 *26:6 *108:14 0.0040242
23 *34:24 *108:26 5.86399e-06
24 *47:64 *108:14 0.00045923
25 *89:16 *108:26 9.86551e-06
26 *98:14 *108:14 0.00135408
27 *99:10 *108:10 0.000739626
28 *103:33 *108:26 7.57281e-06
*RES
1 *1422:X *108:10 48.6264 
2 *108:10 *108:12 15 
3 *108:12 *108:14 45.4057 
4 *108:14 *108:26 35.7426 
5 *108:26 *108:30 17.9207 
6 *108:30 *228:DIODE 25.61 
7 *108:30 *1423:C 23.4971 
*END

*D_NET *109 0.00954778
*CONN
*I *1424:A I *D sky130_fd_sc_hd__clkbuf_1
*I *1423:X O *D sky130_fd_sc_hd__and3_1
*CAP
1 *1424:A 0
2 *1423:X 0.000319815
3 *109:32 0.000626654
4 *109:12 0.00274156
5 *109:8 0.00243472
6 *109:8 *212:63 0.000759227
7 *109:12 *1460:B 6.99589e-05
8 *109:12 *1518:B 6.23934e-05
9 *109:12 *181:24 0.000186706
10 *109:32 *1413:D 2.36949e-05
11 *109:32 *1599:A 0
12 *109:32 *122:10 7.17297e-05
13 *109:32 *122:32 0.000559403
14 *109:32 *227:26 1.02561e-05
15 *1587:D *109:32 1.76087e-05
16 *47:79 *109:32 0.000215218
17 *86:16 *109:32 8.23293e-06
18 *86:18 *109:32 1.22262e-05
19 *88:24 *109:12 0.000144494
20 *88:30 *109:12 0.000519278
21 *96:10 *109:8 0.000756066
22 *106:41 *109:32 8.5466e-06
*RES
1 *1423:X *109:8 48.3571 
2 *109:8 *109:12 40.8721 
3 *109:12 *109:32 43.6714 
4 *109:32 *1424:A 23 
*END

*D_NET *110 0.0194509
*CONN
*I *1427:A I *D sky130_fd_sc_hd__and3_1
*I *1425:Y O *D sky130_fd_sc_hd__nand3_1
*CAP
1 *1427:A 0
2 *1425:Y 0.000173758
3 *110:26 0.00374871
4 *110:16 0.00458089
5 *110:8 0.00100594
6 *110:8 *219:55 0.000224315
7 *110:16 *127:12 4.6719e-05
8 *110:16 *185:35 0.000144568
9 *110:16 *221:94 0.00019861
10 *110:16 *225:79 0.000160182
11 *110:26 *161:24 0.000224348
12 *110:26 *162:24 0.00122842
13 *110:26 *183:22 2.24048e-05
14 *110:26 *183:28 5.39829e-05
15 *110:26 *185:35 0.000161888
16 *110:26 *201:14 0.000483675
17 *110:26 *210:48 0.00021445
18 *33:22 *110:16 0.000246907
19 *33:22 *110:26 0.002668
20 *48:12 *110:26 0.00031461
21 *59:8 *110:16 0.000426717
22 *74:22 *110:26 0.000125804
23 *95:76 *110:26 0.000113929
24 *95:82 *110:16 0.00107248
25 *95:101 *110:16 0.000617915
26 *97:44 *110:16 6.02277e-06
27 *105:48 *110:26 0.0002607
28 *105:77 *110:26 0.000924918
*RES
1 *1425:Y *110:8 40.5271 
2 *110:8 *110:16 38.9571 
3 *110:16 *110:26 40.8223 
4 *110:26 *1427:A 38 
*END

*D_NET *111 0.0114452
*CONN
*I *1427:C I *D sky130_fd_sc_hd__and3_1
*I *1426:X O *D sky130_fd_sc_hd__a21o_1
*CAP
1 *1427:C 0
2 *1426:X 0
3 *111:6 0.00386507
4 *111:4 0.00386507
5 *111:6 *180:6 9.86777e-06
6 *111:6 *181:109 8.39158e-05
7 *111:6 *184:34 0.000747098
8 *1586:D *111:6 5.5792e-05
9 *1586:RESET_B *111:6 0.000308847
10 *73:10 *111:6 0.00250958
*RES
1 *1426:X *111:4 23 
2 *111:4 *111:6 57.8757 
3 *111:6 *1427:C 23 
*END

*D_NET *112 0.00426629
*CONN
*I *1428:A I *D sky130_fd_sc_hd__buf_1
*I *1427:X O *D sky130_fd_sc_hd__and3_1
*CAP
1 *1428:A 0
2 *1427:X 0.000352028
3 *112:12 0.000390206
4 *112:8 0.000742234
5 *112:8 *183:22 0.000177376
6 *112:8 *183:28 0.000297323
7 *112:8 *207:30 0.000292316
8 *112:8 *207:44 0.000503472
9 *112:8 *217:29 0.000187446
10 *112:12 *115:54 0.000686634
11 *39:8 *112:12 0.000637253
*RES
1 *1427:X *112:8 48.7093 
2 *112:8 *112:12 28.9614 
3 *112:12 *1428:A 23 
*END

*D_NET *113 0.00259629
*CONN
*I *1430:C I *D sky130_fd_sc_hd__and3b_1
*I *1429:X O *D sky130_fd_sc_hd__a31o_1
*CAP
1 *1430:C 0.000591796
2 *1429:X 0.000264359
3 *113:8 0.000856154
4 *1430:C *114:8 1.00084e-05
5 *1430:C *207:44 5.56279e-05
6 *113:8 *208:48 0.000316588
7 *94:10 *113:8 1.46286e-05
8 *95:121 *1430:C 0.000487124
*RES
1 *1429:X *113:8 41.9564 
2 *113:8 *1430:C 48.4607 
*END

*D_NET *114 0.0136595
*CONN
*I *1431:A I *D sky130_fd_sc_hd__clkbuf_1
*I *1430:X O *D sky130_fd_sc_hd__and3b_1
*CAP
1 *1431:A 0.000297862
2 *1430:X 8.16422e-05
3 *114:16 0.00151859
4 *114:12 0.003241
5 *114:8 0.00210191
6 *1431:A *184:84 0.000141355
7 *114:16 *129:16 6.26726e-05
8 *114:16 *205:18 0.00042199
9 *114:16 *208:30 0.000826031
10 an[5] *114:16 8.62876e-05
11 *1430:C *114:8 1.00084e-05
12 *1583:RESET_B *1431:A 0.000138859
13 *1586:D *114:16 9.54522e-05
14 *35:26 *1431:A 1.9104e-05
15 *48:18 *114:16 0.00180247
16 *66:10 *114:16 0.000286421
17 *66:26 *114:12 0.00252785
*RES
1 *1430:X *114:8 39.2014 
2 *114:8 *114:12 48.0186 
3 *114:12 *114:16 48.9507 
4 *114:16 *1431:A 42.9507 
*END

*D_NET *115 0.0564152
*CONN
*I *1466:A I *D sky130_fd_sc_hd__and3_1
*I *1479:A I *D sky130_fd_sc_hd__and3_1
*I *1455:A I *D sky130_fd_sc_hd__and3_1
*I *1485:C1 I *D sky130_fd_sc_hd__o211a_1
*I *1442:A I *D sky130_fd_sc_hd__and3_1
*I *1490:A I *D sky130_fd_sc_hd__and3_1
*I *1471:A I *D sky130_fd_sc_hd__and3_1
*I *1435:A I *D sky130_fd_sc_hd__and3_1
*I *1514:B1 I *D sky130_fd_sc_hd__o211a_1
*I *1462:A I *D sky130_fd_sc_hd__and3_1
*I *1432:X O *D sky130_fd_sc_hd__clkbuf_4
*CAP
1 *1466:A 0.000150371
2 *1479:A 0
3 *1455:A 0.000144423
4 *1485:C1 0
5 *1442:A 0
6 *1490:A 3.27104e-05
7 *1471:A 0.000200303
8 *1435:A 2.07933e-05
9 *1514:B1 0
10 *1462:A 0
11 *1432:X 0.00123437
12 *115:127 0.000406587
13 *115:114 0.00090441
14 *115:106 0.00116657
15 *115:104 0.0024195
16 *115:100 0.00262085
17 *115:91 0.00254449
18 *115:85 0.00298499
19 *115:54 0.00489854
20 *115:52 0.00491537
21 *115:45 7.71237e-05
22 *115:36 0.000626694
23 *115:30 0.00164037
24 *115:20 0.00140308
25 *115:14 0.00141584
26 *115:8 0.00164602
27 *115:6 0.00123437
28 *1435:A *1435:C 1.12349e-05
29 *1455:A *229:DIODE 2.16997e-05
30 *1455:A *1455:C 0.00026294
31 *1455:A *130:38 1.05235e-05
32 *1455:A *132:8 9.59004e-05
33 *1466:A *124:14 0.000316995
34 *1466:A *223:56 5.3304e-05
35 *1466:A *224:18 5.3304e-05
36 *1471:A *230:DIODE 9.1624e-05
37 *1471:A *143:49 6.25714e-05
38 *1471:A *206:34 0.000180849
39 *115:6 *189:22 0.000107226
40 *115:14 *144:10 0.000820219
41 *115:14 *154:14 0.000107101
42 *115:14 *206:10 0.000456496
43 *115:20 *154:14 0.000174567
44 *115:20 *164:12 7.16984e-05
45 *115:30 *154:14 0.000203344
46 *115:30 *164:12 0.000486254
47 *115:30 *166:8 0.000113235
48 *115:30 *174:14 7.71698e-05
49 *115:30 *177:12 0.000201473
50 *115:30 *184:14 0
51 *115:30 *184:24 0
52 *115:30 *194:16 1.40281e-05
53 *115:30 *194:26 8.30162e-05
54 *115:36 *154:14 0.000196935
55 *115:36 *174:14 4.6318e-06
56 *115:36 *184:24 0
57 *115:36 *211:108 0.000742784
58 *115:52 *217:50 1.14154e-05
59 *115:54 *1435:C 8.35704e-05
60 *115:54 *1497:B 0.000203953
61 *115:54 *1497:C 0.000255773
62 *115:54 *1497:D 0.000135037
63 *115:54 *118:8 2.17706e-05
64 *115:54 *147:34 7.15126e-05
65 *115:54 *163:8 0.000185434
66 *115:54 *217:50 2.81066e-05
67 *115:85 *206:10 0.00169634
68 *115:91 *124:14 0.000114083
69 *115:91 *141:28 7.84227e-05
70 *115:100 *124:14 0.000114083
71 *115:104 *139:33 6.81431e-05
72 *115:104 *175:66 0.000173361
73 *115:104 *221:94 0.00025413
74 *115:104 *225:75 0.000717153
75 *115:114 *1485:A2 1.89957e-05
76 *115:114 *1559:A 1.23172e-05
77 *115:114 *116:14 0.00174067
78 *115:114 *152:18 5.50106e-05
79 *115:114 *191:84 1.25212e-05
80 *115:114 *191:86 0.000577754
81 *115:127 *1455:C 5.09995e-05
82 *115:127 *1479:C 0.000125801
83 *115:127 *116:14 0.000586211
84 *115:127 *132:8 0.000230548
85 *1420:B *1490:A 5.50106e-05
86 *1432:A *115:6 0.0011496
87 *27:8 *115:91 2.41737e-05
88 *38:8 *115:54 5.30256e-05
89 *39:8 *115:54 0.000234007
90 *39:14 *115:54 0.000108907
91 *45:16 *1471:A 0.000232498
92 *45:20 *115:14 6.78463e-05
93 *50:12 *115:14 5.09072e-05
94 *50:12 *115:85 0.00170555
95 *50:16 *115:14 0
96 *54:18 *115:14 0.000195117
97 *54:18 *115:85 0.000115145
98 *68:10 *115:114 0.00236056
99 *68:10 *115:127 0.000576998
100 *74:22 *115:54 0.000130115
101 *84:8 *115:30 0.000193742
102 *95:53 *115:14 0.00115253
103 *95:53 *115:20 0.000165482
104 *97:61 *115:104 0.000308253
105 *103:35 *1466:A 0.000306851
106 *103:35 *115:91 0.000116314
107 *103:35 *115:100 0.000102638
108 *104:39 *115:20 0.000177563
109 *104:39 *115:30 0.000813741
110 *112:12 *115:54 0.000686634
*RES
1 *1432:X *115:6 39.82 
2 *115:6 *115:8 15 
3 *115:8 *115:14 33.3086 
4 *115:14 *115:20 6.19357 
5 *115:20 *115:30 26.68 
6 *115:30 *115:36 28.6714 
7 *115:36 *1462:A 23 
8 *115:30 *115:45 15.6214 
9 *115:45 *1514:B1 23 
10 *115:45 *115:52 0.849286 
11 *115:52 *115:54 65.8921 
12 *115:54 *1435:A 23.4971 
13 *115:20 *1471:A 43.4064 
14 *115:14 *1490:A 38.6214 
15 *115:8 *115:85 37.6821 
16 *115:85 *115:91 44.3314 
17 *115:91 *1442:A 38 
18 *115:91 *115:100 1.55357 
19 *115:100 *115:104 48.0186 
20 *115:104 *115:106 15 
21 *115:106 *115:114 49.51 
22 *115:114 *1485:C1 23 
23 *115:106 *115:127 25.9164 
24 *115:127 *1455:A 26.9564 
25 *115:127 *1479:A 23 
26 *115:100 *1466:A 42.9921 
*END

*D_NET *116 0.0232506
*CONN
*I *1435:B I *D sky130_fd_sc_hd__and3_1
*I *1433:Y O *D sky130_fd_sc_hd__nand2_1
*CAP
1 *1435:B 0
2 *1433:Y 0.000611928
3 *116:26 0.00493988
4 *116:14 0.00685705
5 *116:8 0.00252909
6 *116:8 *1433:A 7.95762e-05
7 *116:14 *131:14 0.000691815
8 *116:14 *191:84 0.000126901
9 *116:26 *117:10 0.00106947
10 *116:26 *118:12 0.000169394
11 *116:26 *148:10 0.000987062
12 *116:26 *181:105 0
13 *1580:RESET_B *116:8 0.000225671
14 *58:20 *116:14 0.000252486
15 *68:10 *116:14 5.59141e-05
16 *81:14 *116:26 0.000726856
17 *84:32 *116:26 0.000718078
18 *91:10 *116:26 0.000882511
19 *115:114 *116:14 0.00174067
20 *115:127 *116:14 0.000586211
*RES
1 *1433:Y *116:8 46.7207 
2 *116:8 *116:14 42.3627 
3 *116:14 *116:26 38.9661 
4 *116:26 *1435:B 38 
*END

*D_NET *117 0.0195492
*CONN
*I *1435:C I *D sky130_fd_sc_hd__and3_1
*I *1434:X O *D sky130_fd_sc_hd__or2_1
*CAP
1 *1435:C 0.000328141
2 *1434:X 0.00159337
3 *117:10 0.00232182
4 *117:8 0.00199368
5 *117:6 0.00159337
6 *1435:C *118:8 2.04929e-05
7 *117:6 *1524:A1 0.00026523
8 *117:10 *148:10 6.21642e-05
9 *1435:A *1435:C 1.12349e-05
10 *1524:B1_N *117:6 0.00107894
11 *81:12 *117:10 1.67942e-05
12 *81:14 *117:10 0.00106545
13 *84:32 *117:10 0.00383314
14 *91:10 *117:10 0.0042123
15 *115:54 *1435:C 8.35704e-05
16 *116:26 *117:10 0.00106947
*RES
1 *1434:X *117:6 45.0607 
2 *117:6 *117:8 15 
3 *117:8 *117:10 80.7857 
4 *117:10 *1435:C 43.6343 
*END

*D_NET *118 0.00697183
*CONN
*I *1436:A I *D sky130_fd_sc_hd__clkbuf_1
*I *1435:X O *D sky130_fd_sc_hd__and3_1
*CAP
1 *1436:A 0.000725015
2 *1435:X 8.70835e-05
3 *118:12 0.00222239
4 *118:8 0.00158446
5 *1436:A *153:6 0.000940276
6 *118:12 *148:10 0
7 *1435:C *118:8 2.04929e-05
8 *68:8 *1436:A 6.39547e-05
9 *88:42 *118:12 0.00113699
10 *115:54 *118:8 2.17706e-05
11 *116:26 *118:12 0.000169394
*RES
1 *1435:X *118:8 39.5743 
2 *118:8 *118:12 49.3029 
3 *118:12 *1436:A 37.935 
*END

*D_NET *119 0.0116635
*CONN
*I *1439:B I *D sky130_fd_sc_hd__nor3_1
*I *1437:Y O *D sky130_fd_sc_hd__a21oi_1
*CAP
1 *1439:B 0
2 *1437:Y 0.000161449
3 *119:10 0.00210623
4 *119:8 0.00226768
5 *119:8 *154:12 0.000128401
6 *119:10 *1437:B1 0
7 *119:10 *125:12 0.000546958
8 *119:10 *163:50 0.000267844
9 *119:10 *173:12 0.00116969
10 *119:10 *189:80 0.000447723
11 *119:10 *189:88 0.00159748
12 *119:10 *209:58 0
13 *119:10 *209:70 0.000176851
14 *119:10 *210:36 0.000186259
15 *119:10 *218:18 0.000227794
16 *119:10 *218:22 0.00161168
17 *1586:RESET_B *119:10 0
18 *73:10 *119:10 0.000548209
19 *106:10 *119:10 0.00015788
20 *106:41 *119:10 6.13347e-05
*RES
1 *1437:Y *119:8 40.5271 
2 *119:8 *119:10 61.0657 
3 *119:10 *1439:B 38 
*END

*D_NET *120 0.0215372
*CONN
*I *1440:B I *D sky130_fd_sc_hd__or2_1
*I *1439:C I *D sky130_fd_sc_hd__nor3_1
*I *1441:B I *D sky130_fd_sc_hd__nand2_1
*I *1438:X O *D sky130_fd_sc_hd__and3_1
*CAP
1 *1440:B 0
2 *1439:C 0.000339023
3 *1441:B 0
4 *1438:X 0.000268175
5 *120:60 0.000851377
6 *120:40 0.00142744
7 *120:38 0.00161697
8 *120:30 0.000762546
9 *120:26 0.000536065
10 *120:18 0.00158327
11 *120:8 0.00240075
12 *120:18 *165:37 0.000110218
13 *120:18 *181:32 0.000346215
14 *120:26 *156:10 0.000320076
15 *120:26 *196:43 1.83408e-05
16 *120:26 *210:14 1.10105e-05
17 *120:30 *1539:A 0.000102389
18 *120:38 *141:10 0.000111926
19 *120:38 *143:33 3.50975e-05
20 *120:38 *210:20 0
21 *120:40 *127:24 0.000601144
22 *120:40 *135:22 0
23 *120:40 *143:33 0.000560187
24 *120:40 *166:16 0.000275224
25 *120:40 *187:81 0.000209668
26 *120:40 *190:109 2.38097e-05
27 *120:40 *205:49 7.28722e-06
28 *120:40 *208:12 2.13834e-05
29 *120:40 *208:14 0.000158475
30 *120:40 *208:18 2.26406e-05
31 *120:40 *208:75 0.000126701
32 *120:40 *225:43 0.00109184
33 *120:60 *165:37 0.000106443
34 *120:60 *179:156 8.67978e-05
35 *120:60 *181:28 0.000176541
36 *120:60 *181:32 0.000138727
37 *120:60 *191:24 0.000111929
38 *120:60 *200:100 0.00181635
39 *120:60 *200:106 1.07299e-05
40 *120:60 *200:123 2.23467e-05
41 *120:60 *211:18 0.00181811
42 *120:60 *211:43 0.000155907
43 *1438:C *120:8 0.000301116
44 *1566:RESET_B *120:40 0.000759732
45 *1567:RESET_B *120:40 0.000266101
46 *23:22 *120:40 1.50018e-05
47 *26:6 *120:18 0.000377001
48 *42:10 *120:18 8.4047e-05
49 *49:12 *120:18 3.83778e-05
50 *57:14 *1439:C 0.000587237
51 *57:14 *120:30 0.000157933
52 *60:6 *120:30 0.00014119
53 *61:24 *120:40 1.50312e-05
54 *66:10 *120:26 0.000317844
55 *75:8 *120:60 9.3425e-05
*RES
1 *1438:X *120:8 41.48 
2 *120:8 *120:18 48.9329 
3 *120:18 *120:26 36.4214 
4 *120:26 *120:30 19.6711 
5 *120:30 *120:38 18.7907 
6 *120:38 *120:40 36.5918 
7 *120:40 *1441:B 38 
8 *120:30 *1439:C 30.0739 
9 *120:8 *120:60 48.2464 
10 *120:60 *1440:B 23 
*END

*D_NET *121 0.00674349
*CONN
*I *1442:B I *D sky130_fd_sc_hd__and3_1
*I *1440:X O *D sky130_fd_sc_hd__or2_1
*CAP
1 *1442:B 0
2 *1440:X 0
3 *121:10 0.00221523
4 *121:4 0.00221523
5 *121:10 *124:14 8.85189e-05
6 *121:10 *211:32 0.000351309
7 *121:10 *212:14 0
8 *121:10 *223:43 0.000971921
9 *88:6 *121:10 0.000901273
*RES
1 *1440:X *121:4 23 
2 *121:4 *121:10 46.8379 
3 *121:10 *1442:B 38 
*END

*D_NET *122 0.0164374
*CONN
*I *1442:C I *D sky130_fd_sc_hd__and3_1
*I *1445:A2 I *D sky130_fd_sc_hd__a211oi_1
*I *1441:Y O *D sky130_fd_sc_hd__nand2_1
*CAP
1 *1442:C 0.000240155
2 *1445:A2 0
3 *1441:Y 0.000365594
4 *122:32 0.00109743
5 *122:10 0.00296494
6 *122:8 0.00210767
7 *122:6 0.000365594
8 *1442:C *124:14 0.000193407
9 *1442:C *188:101 0.000204655
10 *1442:C *225:75 4.0173e-05
11 *122:6 *1441:A 0.000318666
12 *122:6 *170:39 0.000418254
13 *122:6 *193:16 0.00111203
14 *122:10 *134:40 3.66996e-05
15 *122:10 *155:22 0.00084083
16 *122:10 *155:26 0.00218636
17 *122:10 *222:36 0.000248671
18 *122:32 *167:22 0.000546629
19 *122:32 *188:101 1.6298e-05
20 *122:32 *212:14 2.12347e-06
21 *122:32 *221:84 1.14346e-05
22 *122:32 *227:14 0.000145297
23 *24:14 *122:10 0.000181372
24 *47:79 *122:10 0.000295282
25 *47:99 *122:32 0.000625445
26 *54:18 *122:32 1.40476e-05
27 *86:18 *122:10 0
28 *86:18 *122:32 0.000262166
29 *94:14 *122:10 0.000637127
30 *103:35 *1442:C 0
31 *103:35 *122:32 0
32 *104:22 *122:10 0.000212725
33 *106:41 *122:32 0.000115225
34 *109:32 *122:10 7.17297e-05
35 *109:32 *122:32 0.000559403
*RES
1 *1441:Y *122:6 35.5321 
2 *122:6 *122:8 15 
3 *122:8 *122:10 55.2554 
4 *122:10 *122:32 43.7091 
5 *122:32 *1445:A2 38 
6 *122:32 *1442:C 44.235 
*END

*D_NET *123 0.00538665
*CONN
*I *1443:A I *D sky130_fd_sc_hd__buf_1
*I *1442:X O *D sky130_fd_sc_hd__and3_1
*CAP
1 *1443:A 0
2 *1442:X 0.000623502
3 *123:12 0.0014681
4 *123:8 0.0020916
5 *123:8 *139:33 8.04e-05
6 *123:8 *176:47 2.64616e-05
7 *123:8 *188:111 0.000178235
8 *123:8 *225:75 0.000105881
9 *123:12 *1565:CLK 0
10 *123:12 *150:12 5.6882e-05
11 *123:12 *158:30 0.000223996
12 *123:12 *162:10 2.26406e-05
13 *123:12 *176:47 6.25829e-05
14 *123:12 *179:130 4.12683e-05
15 *123:12 *185:8 0
16 *123:12 *190:69 2.50227e-05
17 *123:12 *190:75 0.00021119
18 *123:12 *216:18 0
19 *123:12 *223:35 8.29343e-05
20 *123:12 *223:56 8.59604e-05
21 *102:16 *123:12 0
*RES
1 *1442:X *123:8 45.7679 
2 *123:8 *123:12 41.5557 
3 *123:12 *1443:A 23 
*END

*D_NET *124 0.00491111
*CONN
*I *1445:A1 I *D sky130_fd_sc_hd__a211oi_1
*I *1444:Y O *D sky130_fd_sc_hd__inv_2
*CAP
1 *1445:A1 0
2 *1444:Y 0.000476724
3 *124:14 0.000638159
4 *124:8 0.00111488
5 *124:8 *179:100 0.000226655
6 *124:8 *179:130 0.000127747
7 *124:8 *224:26 9.41704e-05
8 *124:14 *188:101 7.71928e-05
9 *124:14 *212:14 0
10 *1442:C *124:14 0.000193407
11 *1466:A *124:14 0.000316995
12 *1580:RESET_B *124:8 0.000209501
13 *47:105 *124:14 0.0006044
14 *54:8 *124:8 5.3304e-05
15 *97:65 *124:14 0.000140313
16 *103:35 *124:14 0.000320975
17 *115:91 *124:14 0.000114083
18 *115:100 *124:14 0.000114083
19 *121:10 *124:14 8.85189e-05
*RES
1 *1444:Y *124:8 47.1971 
2 *124:8 *124:14 33.27 
3 *124:14 *1445:A1 23 
*END

*D_NET *125 0.012015
*CONN
*I *1448:A I *D sky130_fd_sc_hd__and3_1
*I *1446:X O *D sky130_fd_sc_hd__or2_1
*CAP
1 *1448:A 0
2 *1446:X 0.000475868
3 *125:18 0.00165942
4 *125:12 0.00266275
5 *125:8 0.0014792
6 *125:8 *225:30 4.78593e-05
7 *125:8 *225:43 5.68958e-05
8 *125:12 *182:12 2.26497e-05
9 *125:12 *203:51 2.77224e-05
10 *125:12 *209:70 0.000545573
11 *125:12 *209:85 0.000133985
12 *125:12 *225:16 0.00015795
13 *125:12 *225:24 0.000262829
14 *125:12 *225:67 0.000708123
15 *125:18 *185:18 0.000113398
16 *125:18 *185:35 0.000302027
17 *125:18 *187:20 0.000137907
18 *125:18 *191:78 0.000109329
19 *125:18 *217:31 1.29848e-05
20 *1446:B *125:8 0.00022034
21 *47:56 *125:12 0.000149972
22 *47:64 *125:12 0.000174918
23 *65:14 *125:18 0.000509975
24 *89:24 *125:18 0.00089969
25 *97:22 *125:8 8.56254e-05
26 *105:29 *125:18 0.000148185
27 *106:41 *125:12 0.000362894
28 *119:10 *125:12 0.000546958
*RES
1 *1446:X *125:8 44.3386 
2 *125:8 *125:12 42.9643 
3 *125:12 *125:18 45.16 
4 *125:18 *1448:A 38 
*END

*D_NET *126 0.00848371
*CONN
*I *1448:C I *D sky130_fd_sc_hd__and3_1
*I *1447:Y O *D sky130_fd_sc_hd__nand2_1
*CAP
1 *1448:C 0.000447923
2 *1447:Y 0.000227459
3 *126:16 0.00186697
4 *126:8 0.00164651
5 *1448:C *1463:A 0.000384057
6 *1448:C *1525:A 0.000229801
7 *1448:C *156:23 0.000220846
8 *126:16 *155:16 0.000494149
9 *126:16 *156:23 0.000154829
10 *126:16 *179:6 9.41704e-05
11 *126:16 *179:75 0.000492729
12 *126:16 *224:10 0.000383837
13 *126:16 *224:16 1.01065e-05
14 *1587:D *126:16 5.90786e-05
15 *23:8 *1448:C 0.000601325
16 *65:24 *126:8 0.00026353
17 *86:18 *126:16 0.000906384
*RES
1 *1447:Y *126:8 41.0036 
2 *126:8 *126:16 40.9757 
3 *126:16 *1448:C 34.4136 
*END

*D_NET *127 0.0161381
*CONN
*I *1449:A I *D sky130_fd_sc_hd__clkbuf_1
*I *1448:X O *D sky130_fd_sc_hd__and3_1
*CAP
1 *1449:A 5.53111e-05
2 *1448:X 0.000468046
3 *127:24 0.00581802
4 *127:12 0.00623075
5 *1449:A *1451:B 0.000102292
6 *1449:A *165:10 0.000100069
7 *127:12 *128:18 0
8 *127:12 *188:70 5.46745e-05
9 *127:24 *135:14 0
10 *127:24 *135:22 0
11 *127:24 *143:41 0
12 *127:24 *146:10 0.000151253
13 *127:24 *147:99 0.000611418
14 *127:24 *165:10 9.4798e-06
15 *127:24 *175:18 7.60891e-05
16 *127:24 *205:49 5.49457e-05
17 *127:24 *207:20 0.000113929
18 *127:24 *208:75 8.9585e-05
19 *127:24 *223:31 1.24219e-05
20 *127:24 *226:16 0.000119711
21 *33:22 *127:24 0.00101851
22 *80:16 *127:24 0
23 *94:30 *127:24 1.05364e-05
24 *95:24 *1449:A 2.46906e-05
25 *95:32 *127:24 2.86209e-05
26 *95:82 *127:12 0.000168722
27 *97:44 *127:12 0.000171181
28 *110:16 *127:12 4.6719e-05
29 *120:40 *127:24 0.000601144
*RES
1 *1448:X *127:12 49.2198 
2 *127:12 *127:24 44.0777 
3 *127:24 *1449:A 40.0507 
*END

*D_NET *128 0.0235505
*CONN
*I *1452:B I *D sky130_fd_sc_hd__nor3_1
*I *1450:Y O *D sky130_fd_sc_hd__a21oi_2
*CAP
1 *1452:B 0
2 *1450:Y 4.3417e-05
3 *128:28 0.00227491
4 *128:18 0.00711304
5 *128:8 0.00488155
6 *128:8 *175:66 5.56279e-05
7 *128:18 *133:22 0.00172124
8 *128:18 *137:24 0.00407177
9 *128:18 *145:10 0.000341141
10 *128:18 *146:10 1.78655e-05
11 *128:18 *163:12 0.000100926
12 *128:18 *166:36 0
13 *128:18 *167:22 0
14 *128:18 *180:137 0.000568268
15 *128:18 *180:158 0.000231854
16 *128:18 *182:18 0
17 *128:18 *208:81 0
18 *128:18 *221:84 0.00053128
19 *128:28 *129:16 2.33476e-05
20 *128:28 *206:40 2.33476e-05
21 *27:16 *128:18 0.000131276
22 *33:22 *128:18 0.000104065
23 *43:26 *128:28 0
24 *44:26 *128:28 0.000108498
25 *59:8 *128:18 0.000545973
26 *93:18 *128:18 0
27 *95:101 *128:18 8.12539e-05
28 *97:61 *128:18 0.000336732
29 *100:16 *128:18 0.000114474
30 *103:33 *128:18 0.000128671
31 *127:12 *128:18 0
*RES
1 *1450:Y *128:8 38.6214 
2 *128:8 *128:18 42.8134 
3 *128:18 *128:28 35.7992 
4 *128:28 *1452:B 23 
*END

*D_NET *129 0.0446145
*CONN
*I *1457:A2 I *D sky130_fd_sc_hd__a21oi_2
*I *1454:B I *D sky130_fd_sc_hd__nand2_1
*I *1474:D I *D sky130_fd_sc_hd__and4_1
*I *1458:C I *D sky130_fd_sc_hd__and3_2
*I *1453:B I *D sky130_fd_sc_hd__or2_1
*I *1452:C I *D sky130_fd_sc_hd__nor3_1
*I *1451:X O *D sky130_fd_sc_hd__and4_4
*CAP
1 *1457:A2 0
2 *1454:B 0.000335474
3 *1474:D 0
4 *1458:C 0.000211245
5 *1453:B 0
6 *1452:C 0
7 *1451:X 5.78588e-05
8 *129:151 0.000482016
9 *129:143 0.000938671
10 *129:120 0.00220043
11 *129:118 0.00186495
12 *129:111 0.00019356
13 *129:103 0.00148847
14 *129:101 0.00298289
15 *129:97 0.00225278
16 *129:93 0.00106727
17 *129:66 0.00262847
18 *129:64 0.0014581
19 *129:62 0.00070859
20 *129:54 0.00114403
21 *129:35 0.00148243
22 *129:16 0.000538601
23 *129:8 0.00164345
24 *1454:B *1516:A_N 0.000383805
25 *1454:B *1516:B 1.41129e-05
26 *1454:B *147:107 0.000438938
27 *1454:B *187:22 0.000261206
28 *1458:C *1397:A 6.96685e-05
29 *1458:C *1458:A 0.000140927
30 *129:16 *182:39 0.000200413
31 *129:16 *190:10 0.000135329
32 *129:16 *205:18 6.29002e-05
33 *129:16 *206:40 0.000225331
34 *129:35 *1453:A 8.27026e-05
35 *129:35 *201:38 0.000678545
36 *129:35 *226:37 0.000156632
37 *129:54 *200:55 2.81066e-05
38 *129:54 *221:10 0.000610427
39 *129:62 *200:88 0.00125987
40 *129:62 *202:20 0.000110184
41 *129:62 *202:47 0.000175673
42 *129:66 *161:24 0
43 *129:66 *189:14 2.093e-05
44 *129:66 *200:88 0.000771996
45 *129:66 *202:49 0.00108764
46 *129:66 *202:66 3.46013e-05
47 *129:66 *221:66 0.000818261
48 *129:93 *1505:B1 1.07201e-06
49 *129:93 *178:22 1.22773e-05
50 *129:93 *180:101 6.39527e-05
51 *129:93 *201:89 0
52 *129:93 *202:66 0.00050549
53 *129:93 *202:93 0.000223061
54 *129:101 *1461:A 9.91798e-05
55 *129:101 *1575:CLK 0.000162031
56 *129:101 *191:41 0.000331494
57 *129:101 *206:6 1.08906e-05
58 *129:103 *191:41 5.37348e-06
59 *129:103 *191:43 0.000619387
60 *129:103 *213:31 0.000360771
61 *129:111 *1547:A 2.1369e-05
62 *129:111 *191:43 1.05235e-05
63 *129:111 *191:60 3.76761e-05
64 *129:111 *213:6 5.79559e-05
65 *129:111 *213:31 4.21048e-05
66 *129:120 *146:10 0
67 *129:120 *152:18 0.000482835
68 *129:120 *176:22 5.43589e-05
69 *129:120 *191:60 0.00088232
70 *129:120 *191:72 0.00115752
71 *129:120 *191:78 0.000260338
72 *129:120 *207:20 0
73 *129:120 *207:122 0
74 *129:120 *226:16 0
75 *129:143 *180:79 0.000139647
76 *129:143 *180:101 0
77 *129:143 *199:30 2.56967e-05
78 *129:143 *201:89 0.000339309
79 *129:151 *1457:B1 0.000144501
80 *129:151 *201:89 9.88674e-05
81 *129:151 *202:93 0.000481637
82 *1505:C1 *129:93 9.02048e-05
83 *1564:RESET_B *129:62 0
84 *1579:RESET_B *129:54 0
85 *1579:RESET_B *129:62 0
86 *1581:RESET_B *129:111 0
87 *1583:RESET_B *129:16 0.000166145
88 *23:16 *129:120 0.00116257
89 *26:22 *129:97 7.12002e-05
90 *26:22 *129:101 9.91481e-05
91 *34:18 *129:120 3.47911e-05
92 *40:12 *129:35 0
93 *45:16 *129:8 0.000137651
94 *48:18 *129:16 0.000339457
95 *56:16 *129:151 0
96 *62:8 *129:143 0.000228835
97 *63:10 *129:93 0.000114232
98 *63:10 *129:143 0
99 *66:10 *129:16 5.05449e-05
100 *77:12 *129:54 0.000562276
101 *92:14 *129:120 0
102 *95:32 *129:35 2.64616e-05
103 *95:40 *129:8 9.67842e-05
104 *95:40 *129:16 1.38134e-05
105 *95:40 *129:35 0.000170645
106 *95:49 *129:35 6.2403e-05
107 *96:33 *129:16 1.05441e-05
108 *96:33 *129:35 2.11351e-05
109 *98:24 *129:62 0.000158588
110 *99:10 *129:66 0
111 *101:12 *129:120 0.00224365
112 *104:16 *129:35 0.000145433
113 *104:39 *129:35 0.000346292
114 *108:14 *129:62 9.65021e-05
115 *114:16 *129:16 6.26726e-05
116 *128:28 *129:16 2.33476e-05
*RES
1 *1451:X *129:8 39.5743 
2 *129:8 *129:16 29.2929 
3 *129:16 *1452:C 23 
4 *129:8 *129:35 37.0193 
5 *129:35 *1453:B 23 
6 *129:35 *129:54 42.2629 
7 *129:54 *129:62 48.1457 
8 *129:62 *129:64 15 
9 *129:64 *129:66 36.7679 
10 *129:66 *1458:C 41.0036 
11 *129:66 *129:93 48.4357 
12 *129:93 *129:97 16.5743 
13 *129:97 *129:101 24.2254 
14 *129:101 *129:103 26.1104 
15 *129:103 *129:111 34.1843 
16 *129:111 *1474:D 23 
17 *129:103 *129:118 15 
18 *129:118 *129:120 51.2057 
19 *129:120 *1454:B 46.7414 
20 *129:97 *129:143 39.3214 
21 *129:143 *129:151 41.2686 
22 *129:151 *1457:A2 23 
*END

*D_NET *130 0.0293306
*CONN
*I *1455:B I *D sky130_fd_sc_hd__and3_1
*I *229:DIODE I *D sky130_fd_sc_hd__diode_2
*I *1453:X O *D sky130_fd_sc_hd__or2_1
*CAP
1 *1455:B 0
2 *229:DIODE 0.000203951
3 *1453:X 8.94706e-05
4 *130:38 0.000250294
5 *130:34 0.00667184
6 *130:24 0.00863017
7 *130:12 0.00209414
8 *130:12 *1453:A 5.56356e-05
9 *130:24 *151:32 4.71827e-05
10 *130:24 *165:16 0
11 *130:24 *206:26 0.000449534
12 *130:24 *211:79 1.08929e-05
13 *130:24 *216:58 0.000448723
14 *130:34 *132:8 0.00013672
15 *130:34 *136:24 0.000122277
16 *130:34 *147:160 0.000175154
17 *130:34 *151:22 0.000113929
18 *130:34 *151:32 0.000146089
19 *130:34 *158:20 0.00339426
20 *130:34 *166:36 0
21 *130:34 *167:22 0.00183513
22 *130:34 *169:10 5.01385e-05
23 *130:34 *179:132 0.000112764
24 *1455:A *229:DIODE 2.16997e-05
25 *1455:A *130:38 1.05235e-05
26 *1579:RESET_B *130:12 6.97776e-05
27 *25:10 *130:12 6.97776e-05
28 *33:22 *130:34 0.000302313
29 *34:18 *130:34 0
30 *40:12 *130:24 0.0008885
31 *43:10 *130:34 0.000201676
32 *43:26 *130:34 0.000559426
33 *47:39 *130:24 0.000114277
34 *47:56 *130:24 1.05658e-05
35 *61:24 *130:24 0
36 *76:10 *130:24 2.05503e-05
37 *82:8 *130:24 0.000228574
38 *84:51 *130:34 4.81894e-05
39 *90:18 *130:24 0.00031197
40 *90:18 *130:34 0.000179252
41 *98:35 *130:34 0.000460907
42 *102:28 *130:34 0.000794283
*RES
1 *1453:X *130:12 47.6468 
2 *130:12 *130:24 48.6229 
3 *130:24 *130:34 35.5172 
4 *130:34 *130:38 15.6214 
5 *130:38 *229:DIODE 25.5271 
6 *130:38 *1455:B 23 
*END

*D_NET *131 0.0114696
*CONN
*I *1455:C I *D sky130_fd_sc_hd__and3_1
*I *1454:Y O *D sky130_fd_sc_hd__nand2_1
*CAP
1 *1455:C 0.000465416
2 *1454:Y 0.000823909
3 *131:14 0.00165847
4 *131:12 0.00201696
5 *1455:C *1479:C 0.00030073
6 *131:12 *187:22 1.59094e-05
7 *131:14 *170:12 0.00128104
8 *131:14 *170:73 0.00203361
9 *131:14 *191:84 8.32438e-05
10 *131:14 *191:86 7.31043e-06
11 *228:DIODE *131:12 0.000122995
12 *1423:B *131:12 3.35597e-05
13 *1423:C *131:12 1.28305e-05
14 *1455:A *1455:C 0.00026294
15 *58:20 *131:14 0.000514199
16 *79:10 *131:14 0.000863955
17 *108:30 *131:12 0.000229686
18 *115:127 *1455:C 5.09995e-05
19 *116:14 *131:14 0.000691815
*RES
1 *1454:Y *131:12 49.2686 
2 *131:12 *131:14 44.1629 
3 *131:14 *1455:C 45.1568 
*END

*D_NET *132 0.0305312
*CONN
*I *1456:A I *D sky130_fd_sc_hd__buf_1
*I *1455:X O *D sky130_fd_sc_hd__and3_1
*CAP
1 *1456:A 0.000169856
2 *1455:X 2.52923e-05
3 *132:16 0.00303883
4 *132:14 0.00373594
5 *132:8 0.00375182
6 *132:6 0.00291015
7 *132:8 *1479:C 0.000391193
8 *132:8 *150:6 0.00185638
9 *132:8 *158:30 0.000918009
10 *132:8 *179:132 0.000763741
11 *132:8 *190:75 0.000269096
12 *132:16 *193:34 0
13 *132:16 *195:18 0.00492636
14 *1455:A *132:8 9.59004e-05
15 *30:6 *132:8 0.000385694
16 *50:8 *132:8 0.000418325
17 *61:10 *132:16 0.00552804
18 *62:10 *132:16 0.000710154
19 *86:16 *132:8 0.000269099
20 *115:127 *132:8 0.000230548
21 *130:34 *132:8 0.00013672
*RES
1 *1455:X *132:6 23.4971 
2 *132:6 *132:8 72.8004 
3 *132:8 *132:14 27.3146 
4 *132:14 *132:16 104.027 
5 *132:16 *1456:A 41.0036 
*END

*D_NET *133 0.0279109
*CONN
*I *1459:B I *D sky130_fd_sc_hd__nor3_1
*I *1457:Y O *D sky130_fd_sc_hd__a21oi_2
*CAP
1 *1459:B 0.000103189
2 *1457:Y 2.45428e-05
3 *133:28 0.00171421
4 *133:22 0.00886547
5 *133:10 0.00727899
6 *1459:B *1459:C 0.000143423
7 *133:22 *142:22 0.00016612
8 *133:22 *167:22 0
9 *133:22 *168:8 0.000124559
10 *133:22 *168:12 0.000256102
11 *133:22 *179:75 0.000101191
12 *133:22 *179:96 0.000120007
13 *133:22 *179:106 0.000133003
14 *133:22 *222:24 0.000771733
15 *133:28 *175:18 0
16 *133:28 *183:64 8.2767e-05
17 *133:28 *183:83 9.50171e-05
18 *133:28 *187:50 0.000289415
19 *133:28 *188:14 0
20 *133:28 *188:158 9.57021e-05
21 *133:28 *213:33 0
22 *133:28 *213:45 0.000296886
23 *133:28 *213:77 0.000333795
24 *133:28 *227:112 2.24973e-05
25 *1394:B *133:28 0
26 *1565:RESET_B *133:22 0.00017347
27 *11:23 *133:22 0.000843002
28 *22:20 *133:28 0.00132319
29 *23:16 *133:28 0.000534036
30 *42:18 *133:22 0.000138414
31 *47:99 *133:22 0.000403507
32 *47:174 *1459:B 1.59071e-05
33 *56:12 *133:22 0.00067949
34 *103:33 *133:22 0.000215319
35 *107:24 *133:22 0.0008447
36 *128:18 *133:22 0.00172124
*RES
1 *1457:Y *133:10 46.3211 
2 *133:10 *133:22 45.5488 
3 *133:22 *133:28 36.6539 
4 *133:28 *1459:B 40.0507 
*END

*D_NET *134 0.0282891
*CONN
*I *1461:B I *D sky130_fd_sc_hd__nand2_1
*I *1465:C I *D sky130_fd_sc_hd__nand3_1
*I *1460:B I *D sky130_fd_sc_hd__or2_1
*I *1464:A2 I *D sky130_fd_sc_hd__a21o_1
*I *1459:C I *D sky130_fd_sc_hd__nor3_1
*I *1458:X O *D sky130_fd_sc_hd__and3_2
*CAP
1 *1461:B 0
2 *1465:C 0
3 *1460:B 0.000178849
4 *1464:A2 0
5 *1459:C 0.000616548
6 *1458:X 0.00123249
7 *134:80 0.000543477
8 *134:46 0.00147902
9 *134:40 0.0021193
10 *134:26 0.00149109
11 *134:22 0.00142087
12 *134:14 0.00223833
13 *134:8 0.00141636
14 *134:6 0.00123249
15 *1459:C *1407:B 8.48502e-06
16 *1459:C *1407:C 2.02872e-05
17 *1459:C *180:14 5.3304e-05
18 *1459:C *180:27 9.79925e-05
19 *1459:C *200:23 9.64943e-05
20 *1460:B *155:16 5.11621e-05
21 *1460:B *181:24 0.000181838
22 *134:6 *1397:A 0.00051202
23 *134:6 *200:129 0.000823037
24 *134:6 *223:43 8.4442e-05
25 *134:14 *136:24 0.000164912
26 *134:14 *143:12 0.000618839
27 *134:14 *179:140 0.000292031
28 *134:14 *180:67 0
29 *134:14 *203:37 0.000262913
30 *134:14 *203:80 0.000161276
31 *134:14 *203:82 0.00161759
32 *134:22 *141:10 0
33 *134:22 *180:56 2.36182e-05
34 *134:22 *203:37 7.17257e-05
35 *134:22 *203:45 0.000329051
36 *134:22 *204:46 9.92345e-05
37 *134:22 *209:76 0.000719534
38 *134:26 *185:45 0.000129504
39 *134:40 *1464:B1 9.41704e-05
40 *134:40 *1484:A3 9.58714e-05
41 *134:40 *185:45 0.000787261
42 *134:40 *227:53 0.000339903
43 *134:46 *145:10 0
44 *134:46 *163:12 0.000675131
45 *134:46 *227:53 0.000498149
46 *134:46 *227:59 0.00021039
47 *134:80 *1461:A 5.50049e-05
48 *134:80 *1580:CLK 3.44129e-05
49 *134:80 *179:140 0.000356131
50 *134:80 *180:67 0
51 *134:80 *186:48 7.84892e-05
52 *134:80 *191:41 5.50049e-05
53 *134:80 *202:72 0.000132987
54 *134:80 *203:82 0.000939139
55 *1459:B *1459:C 0.000143423
56 *11:23 *134:40 2.26497e-05
57 *24:14 *134:40 0
58 *24:14 *134:46 0.000363912
59 *47:79 *134:40 8.39787e-05
60 *47:174 *1459:C 0.00023844
61 *47:189 *1459:C 3.23857e-06
62 *65:20 *134:26 0.000136486
63 *65:20 *134:40 0.000397734
64 *66:10 *134:14 0.000368513
65 *67:8 *1459:C 0.000230918
66 *88:14 *134:14 0.000261206
67 *103:33 *134:40 0.00119175
68 *109:12 *1460:B 6.99589e-05
69 *122:10 *134:40 3.66996e-05
*RES
1 *1458:X *134:6 40.2964 
2 *134:6 *134:8 15 
3 *134:8 *134:14 44.5593 
4 *134:14 *134:22 48.1457 
5 *134:22 *134:26 16.9057 
6 *134:26 *134:40 46.9 
7 *134:40 *134:46 49.865 
8 *134:46 *1459:C 36.5057 
9 *134:40 *1464:A2 23 
10 *134:26 *1460:B 41.9564 
11 *134:14 *1465:C 23 
12 *134:8 *134:80 28.7957 
13 *134:80 *1461:B 23 
*END

*D_NET *135 0.015969
*CONN
*I *1462:B I *D sky130_fd_sc_hd__and3_1
*I *1460:X O *D sky130_fd_sc_hd__or2_1
*CAP
1 *1462:B 0.00010169
2 *1460:X 4.99221e-05
3 *135:22 0.0019221
4 *135:14 0.00378164
5 *135:8 0.00201115
6 *1462:B *219:23 7.95762e-05
7 *135:8 *181:24 5.3304e-05
8 *135:14 *165:16 6.22155e-06
9 *135:14 *166:36 0.000424474
10 *135:14 *203:51 0.00192251
11 *135:14 *223:31 2.95242e-05
12 *135:14 *224:10 0.00237449
13 *135:22 *136:24 2.91395e-05
14 *135:22 *137:10 7.13284e-05
15 *135:22 *143:41 0.000197154
16 *135:22 *156:10 0.000419661
17 *135:22 *165:10 7.57281e-06
18 *135:22 *166:16 0
19 *135:22 *205:26 0.0002469
20 *1567:RESET_B *135:22 0
21 *1586:D *135:22 0
22 *39:14 *135:22 0.000746309
23 *43:26 *135:22 0.000127703
24 *61:24 *135:22 0
25 *66:20 *135:22 0
26 *80:16 *135:14 0.00032972
27 *94:30 *135:14 0.000669227
28 *94:30 *135:22 4.60157e-05
29 *95:32 *135:22 0.000109024
30 *106:10 *135:14 0.000212681
31 *120:40 *135:22 0
32 *127:24 *135:14 0
33 *127:24 *135:22 0
*RES
1 *1460:X *135:8 38.6214 
2 *135:8 *135:14 42.9209 
3 *135:14 *135:22 43.9496 
4 *135:22 *1462:B 39.5743 
*END

*D_NET *136 0.0214255
*CONN
*I *1462:C I *D sky130_fd_sc_hd__and3_1
*I *1461:Y O *D sky130_fd_sc_hd__nand2_1
*CAP
1 *1462:C 1.58742e-05
2 *1461:Y 0.000110316
3 *136:24 0.00769947
4 *136:12 0.00779392
5 *1462:C *211:108 1.18389e-05
6 *136:12 *180:67 7.39704e-05
7 *136:12 *186:48 7.1459e-05
8 *136:24 *142:28 0.000153344
9 *136:24 *143:12 0.000388097
10 *136:24 *156:10 0.000870718
11 *136:24 *161:24 4.57385e-05
12 *136:24 *180:56 0.000227044
13 *136:24 *205:57 0.000177535
14 *136:24 *206:40 0.000103203
15 *136:24 *208:30 0.000222051
16 *1586:D *136:24 0.000289704
17 *43:26 *136:24 0.000313411
18 *47:130 *136:12 9.22014e-05
19 *66:10 *136:24 0.000498964
20 *102:28 *136:24 0.00195026
21 *130:34 *136:24 0.000122277
22 *134:14 *136:24 0.000164912
23 *135:22 *136:24 2.91395e-05
*RES
1 *1461:Y *136:12 47.2102 
2 *136:12 *136:24 48.966 
3 *136:24 *1462:C 38.2279 
*END

*D_NET *137 0.0219412
*CONN
*I *1463:A I *D sky130_fd_sc_hd__buf_1
*I *1462:X O *D sky130_fd_sc_hd__and3_1
*CAP
1 *1463:A 0.000153526
2 *1462:X 4.67501e-05
3 *137:24 0.00676645
4 *137:10 0.00665967
5 *1463:A *156:23 0.000384057
6 *137:24 *138:10 0.000181507
7 *137:24 *140:10 0.000208147
8 *137:24 *147:26 0.000368352
9 *137:24 *175:18 0.000443293
10 *137:24 *175:43 0.000238547
11 *137:24 *180:10 0.000102254
12 *137:24 *180:29 0.00013851
13 *137:24 *191:78 0
14 *137:24 *208:81 0.000257782
15 *137:24 *219:34 0.000149785
16 *137:24 *227:45 0.000208147
17 *1448:C *1463:A 0.000384057
18 *1586:D *137:10 1.73262e-05
19 *74:22 *137:24 0
20 *89:16 *137:24 0.000639596
21 *92:14 *137:24 0.000225778
22 *93:49 *137:24 0.000122496
23 *94:10 *137:24 0.000102058
24 *128:18 *137:24 0.00407177
25 *135:22 *137:10 7.13284e-05
*RES
1 *1462:X *137:10 47.0254 
2 *137:10 *137:24 46.2193 
3 *137:24 *1463:A 42.4329 
*END

*D_NET *138 0.0125698
*CONN
*I *1466:B I *D sky130_fd_sc_hd__and3_1
*I *1464:X O *D sky130_fd_sc_hd__a21o_1
*CAP
1 *1466:B 0.000241589
2 *1464:X 0.000163594
3 *138:10 0.00207902
4 *138:8 0.00200103
5 *138:8 *1484:A3 4.03172e-05
6 *138:8 *207:68 5.50049e-05
7 *138:10 *140:10 0.00068599
8 *138:10 *179:96 3.21208e-05
9 *138:10 *207:68 0.000135557
10 *138:10 *219:49 0.00401848
11 *138:10 *222:10 6.40159e-05
12 *138:10 *222:24 1.71301e-05
13 *138:10 *227:45 0.00249552
14 *34:6 *1466:B 0.00031221
15 *89:16 *138:10 4.6674e-05
16 *137:24 *138:10 0.000181507
*RES
1 *1464:X *138:8 40.0507 
2 *138:8 *138:10 59.305 
3 *138:10 *1466:B 41.48 
*END

*D_NET *139 0.0148209
*CONN
*I *1466:C I *D sky130_fd_sc_hd__and3_1
*I *1469:B I *D sky130_fd_sc_hd__nand2_1
*I *1470:B I *D sky130_fd_sc_hd__or2_1
*I *1465:Y O *D sky130_fd_sc_hd__nand3_1
*CAP
1 *1466:C 0.000145751
2 *1469:B 0
3 *1470:B 0
4 *1465:Y 1.7859e-05
5 *139:43 0.0019775
6 *139:39 0.0021216
7 *139:33 0.00103071
8 *139:14 0.00174543
9 *139:8 0.00102244
10 *1466:C *1408:B 1.95448e-05
11 *139:14 *1470:A 0
12 *139:14 *141:10 0
13 *139:14 *143:8 5.23856e-05
14 *139:14 *178:14 4.65096e-05
15 *139:14 *180:56 0.000365354
16 *139:14 *180:67 0.00123794
17 *139:33 *1470:A 2.93431e-05
18 *139:33 *1522:B 0.000177271
19 *139:33 *143:8 3.84923e-05
20 *139:33 *176:47 0.000137651
21 *139:33 *178:10 1.83327e-05
22 *139:33 *178:14 0.000320314
23 *139:33 *188:113 0.000115
24 *139:33 *211:22 9.7231e-05
25 *139:33 *225:75 0.000671525
26 *139:39 *179:75 1.14452e-05
27 *139:39 *179:96 3.69334e-05
28 *139:43 *1469:A 0.000330442
29 *139:43 *141:28 0.00011252
30 *139:43 *149:33 9.62033e-05
31 *139:43 *179:96 9.58714e-05
32 *139:43 *180:158 5.3304e-05
33 *139:43 *208:111 0.000230351
34 *1565:RESET_B *1466:C 0.000336919
35 *1565:RESET_B *139:39 0.000164282
36 *51:14 *139:8 0.000100061
37 *53:8 *139:43 5.3304e-05
38 *54:18 *1466:C 0.000344925
39 *54:18 *139:39 0.000215782
40 *65:8 *139:43 0.000999433
41 *88:14 *139:8 0.000102389
42 *115:104 *139:33 6.81431e-05
43 *123:8 *139:33 8.04e-05
*RES
1 *1465:Y *139:8 39.0979 
2 *139:8 *139:14 38.0757 
3 *139:14 *1470:B 23 
4 *139:14 *139:33 33.995 
5 *139:33 *139:39 18.4593 
6 *139:39 *139:43 34.945 
7 *139:43 *1469:B 23 
8 *139:33 *1466:C 42.9507 
*END

*D_NET *140 0.00913297
*CONN
*I *1467:A I *D sky130_fd_sc_hd__clkbuf_1
*I *1466:X O *D sky130_fd_sc_hd__and3_1
*CAP
1 *1467:A 0
2 *1466:X 0.000119943
3 *140:10 0.00144444
4 *140:8 0.00156438
5 *140:8 *1408:B 0.000137368
6 *140:10 *168:12 5.9679e-05
7 *140:10 *179:96 0.000504456
8 *140:10 *227:45 0.00182416
9 *27:16 *140:10 0.00106486
10 *89:16 *140:10 0.00151955
11 *137:24 *140:10 0.000208147
12 *138:10 *140:10 0.00068599
*RES
1 *1466:X *140:8 39.5743 
2 *140:8 *140:10 44.515 
3 *140:10 *1467:A 38 
*END

*D_NET *141 0.0173576
*CONN
*I *1470:A I *D sky130_fd_sc_hd__or2_1
*I *1469:A I *D sky130_fd_sc_hd__nand2_1
*I *1468:Y O *D sky130_fd_sc_hd__inv_2
*CAP
1 *1470:A 0.000328877
2 *1469:A 0.00103925
3 *1468:Y 7.80616e-05
4 *141:28 0.00248526
5 *141:18 0.00222799
6 *141:10 0.0027974
7 *141:8 0.00176461
8 *1469:A *149:33 0.000183782
9 *1469:A *208:111 0.000429899
10 *1470:A *143:8 5.76027e-05
11 *1470:A *178:10 1.36794e-05
12 *1470:A *190:69 0
13 *141:10 *143:33 0.000507584
14 *141:10 *180:56 0
15 *141:10 *190:69 0
16 *141:10 *204:46 0.000530399
17 *141:10 *205:78 0
18 *141:10 *207:143 0
19 *141:10 *208:75 0.000118028
20 *141:10 *208:128 0
21 *141:10 *210:20 0
22 *141:10 *210:83 0.00168153
23 *141:18 *151:22 0.000950267
24 *141:18 *155:49 0.000108681
25 *141:28 *208:111 0.000519696
26 *27:8 *141:28 0.000640415
27 *65:8 *141:28 2.43944e-05
28 *76:26 *141:8 9.88259e-05
29 *86:16 *141:18 0.000108681
30 *115:91 *141:28 7.84227e-05
31 *120:38 *141:10 0.000111926
32 *134:22 *141:10 0
33 *139:14 *1470:A 0
34 *139:14 *141:10 0
35 *139:33 *1470:A 2.93431e-05
36 *139:43 *1469:A 0.000330442
37 *139:43 *141:28 0.00011252
*RES
1 *1468:Y *141:8 39.0979 
2 *141:8 *141:10 36.7679 
3 *141:10 *141:18 42.18 
4 *141:18 *141:28 37.7236 
5 *141:28 *1469:A 41.1457 
6 *141:10 *1470:A 44.1107 
*END

*D_NET *142 0.0236465
*CONN
*I *1471:B I *D sky130_fd_sc_hd__and3_1
*I *230:DIODE I *D sky130_fd_sc_hd__diode_2
*I *1469:Y O *D sky130_fd_sc_hd__nand2_1
*CAP
1 *1471:B 0
2 *230:DIODE 0.00014643
3 *1469:Y 0.000702609
4 *142:28 0.00109146
5 *142:22 0.00680234
6 *142:12 0.00655993
7 *230:DIODE *144:8 0.000139352
8 *230:DIODE *206:34 9.58714e-05
9 *142:12 *148:20 8.10663e-05
10 *142:22 *147:99 1.29774e-05
11 *142:22 *167:22 0.000269696
12 *142:22 *182:12 1.93512e-05
13 *142:28 *143:41 0.000347248
14 *142:28 *163:56 0.000788468
15 *142:28 *196:43 0.000224077
16 *142:28 *206:34 1.56762e-05
17 *142:28 *226:37 9.93503e-05
18 *1471:A *230:DIODE 9.1624e-05
19 *11:23 *142:22 0.000123191
20 *47:56 *142:22 0.000220052
21 *58:20 *142:22 0.00257437
22 *66:10 *142:28 0.00156523
23 *74:22 *142:22 5.06237e-05
24 *76:20 *142:22 8.72322e-05
25 *80:18 *142:22 0.000102692
26 *84:51 *142:12 0
27 *96:33 *142:28 0.000339893
28 *106:41 *142:22 3.56514e-06
29 *107:24 *142:22 0.000772619
30 *133:22 *142:22 0.00016612
31 *136:24 *142:28 0.000153344
*RES
1 *1469:Y *142:12 49.6491 
2 *142:12 *142:22 38.9203 
3 *142:22 *142:28 40.8825 
4 *142:28 *230:DIODE 26.5007 
5 *142:28 *1471:B 23 
*END

*D_NET *143 0.0179092
*CONN
*I *1471:C I *D sky130_fd_sc_hd__and3_1
*I *1476:A2 I *D sky130_fd_sc_hd__a211oi_2
*I *1470:X O *D sky130_fd_sc_hd__or2_1
*CAP
1 *1471:C 0
2 *1476:A2 0.000491581
3 *1470:X 0.000344082
4 *143:49 8.18704e-05
5 *143:41 0.000939709
6 *143:33 0.00164027
7 *143:14 0.00139147
8 *143:12 0.0011545
9 *143:8 0.00138111
10 *1476:A2 *225:24 0.000341983
11 *143:8 *178:14 2.94414e-05
12 *143:12 *156:10 0.00124714
13 *143:12 *180:56 1.16455e-05
14 *143:12 *180:67 0.000491596
15 *143:12 *182:71 0.000205044
16 *143:33 *1539:A 7.79116e-05
17 *143:33 *156:10 0
18 *143:33 *180:54 4.69793e-05
19 *143:33 *205:78 0
20 *143:33 *208:12 0.000185221
21 *143:41 *1451:B 4.05745e-05
22 *143:41 *156:10 0.000249387
23 *143:41 *201:38 0.000131538
24 *143:41 *205:26 0.00013333
25 *143:41 *205:49 4.84619e-05
26 *143:41 *206:34 0.000137651
27 *143:41 *208:14 0
28 *143:41 *226:37 0.000219383
29 *143:49 *157:12 2.8337e-05
30 *1470:A *143:8 5.76027e-05
31 *1471:A *143:49 6.25714e-05
32 *26:6 *1476:A2 0.00104845
33 *26:6 *143:14 0.000186096
34 *40:12 *143:49 7.89883e-05
35 *45:16 *143:41 5.46873e-05
36 *45:16 *143:49 6.42666e-05
37 *49:12 *1476:A2 0.000648688
38 *49:12 *143:14 0.000341578
39 *66:10 *143:12 0.00122263
40 *105:112 *143:33 0.000120831
41 *106:6 *143:33 0.000227473
42 *120:38 *143:33 3.50975e-05
43 *120:40 *143:33 0.000560187
44 *127:24 *143:41 0
45 *134:14 *143:12 0.000618839
46 *135:22 *143:41 0.000197154
47 *136:24 *143:12 0.000388097
48 *139:14 *143:8 5.23856e-05
49 *139:33 *143:8 3.84923e-05
50 *141:10 *143:33 0.000507584
51 *142:28 *143:41 0.000347248
*RES
1 *1470:X *143:8 42.4329 
2 *143:8 *143:12 48.5986 
3 *143:12 *143:14 3.95643 
4 *143:14 *1476:A2 37.6036 
5 *143:14 *143:33 48.5186 
6 *143:33 *143:41 47.7521 
7 *143:41 *143:49 31.9057 
8 *143:49 *1471:C 23 
*END

*D_NET *144 0.00880061
*CONN
*I *1472:A I *D sky130_fd_sc_hd__clkbuf_1
*I *1471:X O *D sky130_fd_sc_hd__and3_1
*CAP
1 *1472:A 0.00040033
2 *1471:X 0.000110949
3 *144:10 0.00190513
4 *144:8 0.00161575
5 *144:10 *154:14 0.000418025
6 *144:10 *158:20 0.000909379
7 *144:10 *189:28 0.000138727
8 *144:10 *202:12 1.67858e-05
9 *144:10 *203:18 0.000265914
10 *144:10 *203:31 0.000188313
11 *144:10 *206:10 0.000336995
12 *144:10 *206:26 9.21347e-06
13 *230:DIODE *144:8 0.000139352
14 *25:8 *1472:A 1.84917e-05
15 *32:6 *1472:A 0.00049474
16 *47:31 *144:10 0.000155292
17 *54:18 *144:10 0.000130988
18 *75:12 *1472:A 0.000726019
19 *82:8 *144:10 0
20 *115:14 *144:10 0.000820219
*RES
1 *1471:X *144:8 39.5743 
2 *144:8 *144:10 41.6979 
3 *144:10 *1472:A 48.6264 
*END

*D_NET *145 0.0147189
*CONN
*I *1476:A1 I *D sky130_fd_sc_hd__a211oi_2
*I *1473:Y O *D sky130_fd_sc_hd__inv_2
*CAP
1 *1476:A1 0.000109785
2 *1473:Y 0.000907991
3 *145:10 0.00217236
4 *145:8 0.00206258
5 *145:6 0.000907991
6 *145:6 *171:18 0.00236202
7 *145:6 *173:6 0.000941917
8 *145:6 *206:40 2.4754e-05
9 *145:10 *147:26 3.60739e-05
10 *145:10 *163:12 0
11 *145:10 *227:53 0
12 *145:10 *227:59 0
13 *26:6 *1476:A1 9.64943e-05
14 *49:12 *1476:A1 4.67488e-05
15 *66:16 *145:6 0.000396836
16 *89:16 *145:10 0.00352482
17 *103:14 *145:10 5.91176e-05
18 *103:33 *1476:A1 7.60871e-06
19 *103:33 *145:10 0.000720649
20 *128:18 *145:10 0.000341141
21 *134:46 *145:10 0
*RES
1 *1473:Y *145:6 49.825 
2 *145:6 *145:8 15 
3 *145:8 *145:10 50.1493 
4 *145:10 *1476:A1 40.1957 
*END

*D_NET *146 0.0124036
*CONN
*I *1475:A I *D sky130_fd_sc_hd__buf_4
*I *1474:X O *D sky130_fd_sc_hd__and4_1
*CAP
1 *1475:A 0
2 *1474:X 0.000130013
3 *146:10 0.00243932
4 *146:8 0.00256933
5 *146:10 *147:99 0.000627523
6 *146:10 *147:114 0.000176955
7 *146:10 *147:118 7.969e-05
8 *146:10 *167:10 0.000199136
9 *146:10 *180:137 0.00163478
10 *146:10 *187:34 2.82108e-05
11 *146:10 *191:60 0
12 *146:10 *207:20 0.000306299
13 *146:10 *226:16 0.00282108
14 *1581:RESET_B *146:10 0
15 *34:18 *146:10 0
16 *36:8 *146:8 0.000186686
17 *46:18 *146:10 0.000597011
18 *95:101 *146:10 0
19 *97:61 *146:10 0.00043844
20 *127:24 *146:10 0.000151253
21 *128:18 *146:10 1.78655e-05
22 *129:120 *146:10 0
*RES
1 *1474:X *146:8 40.0507 
2 *146:8 *146:10 64.235 
3 *146:10 *1475:A 38 
*END

*D_NET *147 0.0556694
*CONN
*I *1478:B I *D sky130_fd_sc_hd__nand2_1
*I *1505:B2 I *D sky130_fd_sc_hd__a221oi_2
*I *1488:A I *D sky130_fd_sc_hd__and2_2
*I *1507:B I *D sky130_fd_sc_hd__and3_2
*I *1476:B1 I *D sky130_fd_sc_hd__a211oi_2
*I *1506:A1 I *D sky130_fd_sc_hd__a21oi_1
*I *1484:A3 I *D sky130_fd_sc_hd__a31o_1
*I *1497:C I *D sky130_fd_sc_hd__and4_1
*I *1477:B I *D sky130_fd_sc_hd__or2_1
*I *1486:A4 I *D sky130_fd_sc_hd__a41o_1
*I *1475:X O *D sky130_fd_sc_hd__buf_4
*CAP
1 *1478:B 2.32701e-05
2 *1505:B2 0.000202577
3 *1488:A 0
4 *1507:B 0.000304598
5 *1476:B1 0
6 *1506:A1 4.99221e-05
7 *1484:A3 0.000612684
8 *1497:C 0.00014026
9 *1477:B 0
10 *1486:A4 0
11 *1475:X 9.43803e-06
12 *147:168 0.000685565
13 *147:160 0.00137074
14 *147:149 0.0032361
15 *147:141 0.00336825
16 *147:124 0.00125345
17 *147:118 0.00217384
18 *147:114 0.000355358
19 *147:107 0.000733887
20 *147:99 0.001607
21 *147:57 0.00121229
22 *147:48 0.000761954
23 *147:34 0.00215221
24 *147:28 0.000318229
25 *147:26 0.00127778
26 *147:22 0.00246553
27 *147:16 0.000981733
28 *147:10 0.0011123
29 *1478:B *1478:A 5.3304e-05
30 *1484:A3 *1464:B1 0.000463315
31 *1484:A3 *1484:A2 0.000193371
32 *1484:A3 *153:6 0.00151844
33 *1484:A3 *207:68 6.17437e-06
34 *1484:A3 *209:70 2.19845e-05
35 *1497:C *1497:B 0.000689964
36 *1497:C *1497:D 5.3304e-05
37 *1497:C *163:8 0.000187129
38 *1505:B2 *1505:A2 0.00030805
39 *1505:B2 *1505:B1 0.000557034
40 *1505:B2 *201:76 1.40958e-05
41 *1506:A1 *216:52 5.3304e-05
42 *1507:B *156:37 3.42705e-05
43 *1507:B *187:14 0.000108592
44 *1507:B *212:38 0.000144169
45 *147:16 *188:32 9.75463e-05
46 *147:22 *153:6 0.00136633
47 *147:22 *188:32 0.000161121
48 *147:22 *207:24 0.000202053
49 *147:22 *207:68 0.000510743
50 *147:26 *163:12 0
51 *147:26 *219:34 0.000954308
52 *147:26 *219:47 0.000153979
53 *147:26 *219:49 0.000633116
54 *147:34 *1497:B 0.000139982
55 *147:34 *219:34 0.000125595
56 *147:34 *220:18 0.000256542
57 *147:48 *1486:A1 5.15762e-05
58 *147:48 *1486:A2 9.34648e-05
59 *147:48 *180:10 0.000196325
60 *147:48 *207:44 5.79559e-05
61 *147:48 *209:31 4.18957e-05
62 *147:48 *210:61 0.000320365
63 *147:48 *219:34 9.35616e-05
64 *147:48 *220:18 0.000166522
65 *147:57 *1510:A 0.000401854
66 *147:57 *172:8 1.32939e-05
67 *147:57 *207:55 0.00108888
68 *147:57 *217:14 0.000526656
69 *147:99 *187:34 0.000633913
70 *147:107 *1516:B 0.000311534
71 *147:107 *176:37 0.000438938
72 *147:118 *180:137 0.000166504
73 *147:124 *181:24 0.000842171
74 *147:141 *152:8 2.3531e-06
75 *147:141 *180:137 0.000352066
76 *147:141 *207:112 0.000124152
77 *147:149 *1483:B 0.000175274
78 *147:149 *156:6 2.69815e-05
79 *147:149 *156:23 0.0010026
80 *147:149 *168:14 0.000298503
81 *147:149 *208:94 0.000249291
82 *147:149 *219:49 6.95721e-05
83 *147:160 *151:22 0.000883288
84 *147:168 *200:106 0.000211858
85 *147:168 *211:43 9.53718e-05
86 *1437:A2 *147:48 0.000153017
87 *1454:B *147:107 0.000438938
88 *1476:C1 *147:107 9.947e-05
89 *1576:RESET_B *1478:B 5.3304e-05
90 *1580:D *147:168 0.000362289
91 *26:6 *147:107 5.56356e-05
92 *33:22 *147:16 0
93 *33:22 *147:99 0.000619899
94 *43:10 *147:160 0.00206248
95 *46:18 *147:10 2.26406e-05
96 *49:12 *147:107 0.00014318
97 *58:20 *1507:B 0.000102921
98 *59:8 *147:114 7.51933e-05
99 *59:8 *147:118 0.000345276
100 *59:8 *147:141 0.000344214
101 *65:14 *147:149 0.000259956
102 *76:34 *1507:B 0.000544545
103 *80:18 *1507:B 0.000170826
104 *88:14 *147:141 0.000110701
105 *89:16 *147:26 0.00100119
106 *97:8 *147:16 9.00418e-05
107 *97:8 *147:22 0.000163343
108 *98:35 *147:160 0.000553611
109 *99:14 *147:168 0.000968294
110 *105:48 *147:10 2.33476e-05
111 *115:54 *1497:C 0.000255773
112 *115:54 *147:34 7.15126e-05
113 *127:24 *147:99 0.000611418
114 *130:34 *147:160 0.000175154
115 *134:40 *1484:A3 9.58714e-05
116 *137:24 *147:26 0.000368352
117 *138:8 *1484:A3 4.03172e-05
118 *142:22 *147:99 1.29774e-05
119 *145:10 *147:26 3.60739e-05
120 *146:10 *147:99 0.000627523
121 *146:10 *147:114 0.000176955
122 *146:10 *147:118 7.969e-05
*RES
1 *1475:X *147:10 46.3211 
2 *147:10 *147:16 9.86283 
3 *147:16 *147:22 32.6486 
4 *147:22 *147:26 48.5986 
5 *147:26 *147:28 15 
6 *147:28 *147:34 20.2407 
7 *147:34 *147:48 31.53 
8 *147:48 *1486:A4 23 
9 *147:34 *147:57 44.2071 
10 *147:57 *1477:B 23 
11 *147:28 *1497:C 30.7679 
12 *147:22 *1484:A3 41.2493 
13 *147:16 *1506:A1 38.6214 
14 *147:10 *147:99 34.6354 
15 *147:99 *147:107 30.4321 
16 *147:107 *1476:B1 23 
17 *147:99 *147:114 2.61 
18 *147:114 *147:118 5.34429 
19 *147:118 *147:124 42.0557 
20 *147:124 *1507:B 48.3571 
21 *147:118 *147:141 45.8257 
22 *147:141 *147:149 49.4064 
23 *147:149 *1488:A 23 
24 *147:149 *147:160 44.0621 
25 *147:160 *147:168 43.5886 
26 *147:168 *1505:B2 45.0014 
27 *147:114 *1478:B 38.6214 
*END

*D_NET *148 0.0183968
*CONN
*I *1479:B I *D sky130_fd_sc_hd__and3_1
*I *1477:X O *D sky130_fd_sc_hd__or2_1
*CAP
1 *1479:B 0
2 *1477:X 0.000341148
3 *148:20 0.00115982
4 *148:16 0.0016519
5 *148:10 0.00200011
6 *148:8 0.00184917
7 *148:10 *159:8 0.00465972
8 *148:16 *1559:A 0.000206475
9 *148:20 *212:52 0.000163102
10 *68:10 *148:20 0.00109059
11 *79:8 *148:16 2.92911e-06
12 *81:14 *148:10 0.00345094
13 *84:32 *148:10 0.00069056
14 *84:51 *148:20 0
15 *116:26 *148:10 0.000987062
16 *117:10 *148:10 6.21642e-05
17 *118:12 *148:10 0
18 *142:12 *148:20 8.10663e-05
*RES
1 *1477:X *148:8 42.4329 
2 *148:8 *148:10 67.7564 
3 *148:10 *148:16 36.815 
4 *148:16 *148:20 44.3729 
5 *148:20 *1479:B 23 
*END

*D_NET *149 0.0138469
*CONN
*I *1481:B I *D sky130_fd_sc_hd__xor2_1
*I *1479:C I *D sky130_fd_sc_hd__and3_1
*I *1485:A2 I *D sky130_fd_sc_hd__o211a_1
*I *1478:Y O *D sky130_fd_sc_hd__nand2_1
*CAP
1 *1481:B 0
2 *1479:C 0.000427585
3 *1485:A2 0.000830828
4 *1478:Y 0.0005211
5 *149:33 0.000950623
6 *149:25 0.000523038
7 *149:23 0.000838556
8 *149:6 0.00219048
9 *1485:A2 *152:18 0.000376964
10 *149:6 *152:18 6.80264e-06
11 *149:23 *160:10 0.00147998
12 *149:23 *217:31 0.00215845
13 *149:33 *1433:A 0.00029106
14 *149:33 *181:16 0
15 *149:33 *181:18 0
16 *149:33 *185:18 0
17 *149:33 *221:98 0.000369588
18 *1455:C *1479:C 0.00030073
19 *1469:A *149:33 0.000183782
20 *1576:D *149:6 0.000223913
21 *1576:RESET_B *149:6 4.04982e-05
22 *34:18 *149:23 0.000460886
23 *70:10 *149:33 8.16253e-05
24 *96:10 *149:23 0.000224006
25 *96:10 *149:33 0.000628489
26 *107:24 *149:33 0.00010575
27 *115:114 *1485:A2 1.89957e-05
28 *115:127 *1479:C 0.000125801
29 *132:8 *1479:C 0.000391193
30 *139:43 *149:33 9.62033e-05
*RES
1 *1478:Y *149:6 29.3386 
2 *149:6 *1485:A2 35.5943 
3 *149:6 *149:23 44.0207 
4 *149:23 *149:25 15 
5 *149:25 *149:33 44.1686 
6 *149:33 *1479:C 32.5079 
7 *149:25 *1481:B 23 
*END

*D_NET *150 0.0101017
*CONN
*I *1480:A I *D sky130_fd_sc_hd__clkbuf_1
*I *1479:X O *D sky130_fd_sc_hd__and3_1
*CAP
1 *1480:A 0
2 *1479:X 0
3 *150:12 0.000305745
4 *150:6 0.00330365
5 *150:4 0.00299791
6 *150:12 *223:35 0.000372051
7 *150:12 *223:56 0.000178512
8 *86:16 *150:6 0.000271592
9 *102:16 *150:12 0.000759007
10 *123:12 *150:12 5.6882e-05
11 *132:8 *150:6 0.00185638
*RES
1 *1479:X *150:4 23 
2 *150:4 *150:6 41.5943 
3 *150:6 *150:12 40.3571 
4 *150:12 *1480:A 23 
*END

*D_NET *151 0.0161906
*CONN
*I *1482:B I *D sky130_fd_sc_hd__nor2_1
*I *1481:X O *D sky130_fd_sc_hd__xor2_1
*CAP
1 *1482:B 0
2 *1481:X 3.55839e-05
3 *151:32 0.000845343
4 *151:22 0.00226084
5 *151:14 0.00325395
6 *151:8 0.00187404
7 *151:14 *1524:A1 5.50049e-05
8 *151:14 *188:95 0.000467196
9 *151:32 *226:58 5.26566e-05
10 *1445:B1 *151:22 2.02872e-05
11 *1577:RESET_B *151:32 0.000392984
12 *42:10 *151:32 3.77126e-05
13 *43:10 *151:22 7.05624e-05
14 *43:10 *151:32 0.000729783
15 *43:26 *151:32 0.000162094
16 *44:10 *151:22 0.000180434
17 *76:10 *151:32 2.05503e-05
18 *90:18 *151:32 0.0014974
19 *93:8 *151:8 8.85189e-05
20 *97:44 *151:8 8.62876e-05
21 *97:65 *151:14 0.000840003
22 *97:65 *151:22 1.24376e-05
23 *98:35 *151:22 0.001045
24 *98:35 *151:32 2.12195e-05
25 *130:24 *151:32 4.71827e-05
26 *130:34 *151:22 0.000113929
27 *130:34 *151:32 0.000146089
28 *141:18 *151:22 0.000950267
29 *147:160 *151:22 0.000883288
*RES
1 *1481:X *151:8 39.2014 
2 *151:8 *151:14 39.4636 
3 *151:14 *151:22 49.1786 
4 *151:22 *151:32 40.665 
5 *151:32 *1482:B 23 
*END

*D_NET *152 0.00672399
*CONN
*I *1485:A1 I *D sky130_fd_sc_hd__o211a_1
*I *1483:Y O *D sky130_fd_sc_hd__nand2_1
*CAP
1 *1485:A1 0
2 *1483:Y 0.000426772
3 *152:18 0.00186825
4 *152:8 0.00229503
5 *152:8 *207:112 0.000312837
6 *152:8 *209:76 1.24376e-05
7 *1485:A2 *152:18 0.000376964
8 *1576:RESET_B *152:18 0.00084811
9 *88:14 *152:8 3.65917e-05
10 *115:114 *152:18 5.50106e-05
11 *129:120 *152:18 0.000482835
12 *147:141 *152:8 2.3531e-06
13 *149:6 *152:18 6.80264e-06
*RES
1 *1483:Y *152:8 43.3857 
2 *152:8 *152:18 43.9379 
3 *152:18 *1485:A1 23 
*END

*D_NET *153 0.0130885
*CONN
*I *1485:B1 I *D sky130_fd_sc_hd__o211a_1
*I *1484:X O *D sky130_fd_sc_hd__a31o_1
*CAP
1 *1485:B1 0
2 *1484:X 0
3 *153:10 0.000575797
4 *153:6 0.00327864
5 *153:4 0.00270285
6 *153:6 *207:24 7.88194e-05
7 *153:10 *181:103 0.0017207
8 *153:10 *181:105 6.38845e-05
9 *153:10 *191:86 0
10 *1436:A *153:6 0.000940276
11 *1484:A3 *153:6 0.00151844
12 *41:10 *153:6 8.06804e-06
13 *68:10 *153:10 0.000834739
14 *147:22 *153:6 0.00136633
*RES
1 *1484:X *153:4 23 
2 *153:4 *153:6 47.3114 
3 *153:6 *153:10 38.3864 
4 *153:10 *1485:B1 38 
*END

*D_NET *154 0.0126943
*CONN
*I *1490:B I *D sky130_fd_sc_hd__and3_1
*I *1486:X O *D sky130_fd_sc_hd__a41o_1
*CAP
1 *1490:B 0
2 *1486:X 0.000625272
3 *154:14 0.00184283
4 *154:12 0.00268728
5 *154:8 0.00146972
6 *154:8 *209:54 3.58084e-06
7 *154:12 *209:54 0.000314157
8 *154:12 *221:14 0.00100375
9 *154:14 *157:12 0
10 *154:14 *170:47 3.47879e-05
11 *154:14 *192:10 0.000166522
12 *154:14 *217:50 1.12487e-05
13 *154:14 *227:73 0.00118648
14 *1437:A2 *154:8 0.000484819
15 *47:31 *154:14 7.90068e-05
16 *104:39 *154:14 0.00155648
17 *115:14 *154:14 0.000107101
18 *115:20 *154:14 0.000174567
19 *115:30 *154:14 0.000203344
20 *115:36 *154:14 0.000196935
21 *119:8 *154:12 0.000128401
22 *144:10 *154:14 0.000418025
*RES
1 *1486:X *154:8 33.5229 
2 *154:8 *154:12 38.0136 
3 *154:12 *154:14 45.9236 
4 *154:14 *1490:B 38 
*END

*D_NET *155 0.0259925
*CONN
*I *1488:B I *D sky130_fd_sc_hd__and2_2
*I *1504:B I *D sky130_fd_sc_hd__and2_2
*I *1497:D I *D sky130_fd_sc_hd__and4_1
*I *1487:X O *D sky130_fd_sc_hd__and4_1
*CAP
1 *1488:B 0
2 *1504:B 2.77218e-05
3 *1497:D 6.22598e-05
4 *1487:X 0
5 *155:74 0.000935625
6 *155:57 0.000404076
7 *155:49 0.00187446
8 *155:34 0.000405348
9 *155:26 0.00156842
10 *155:24 0.00122533
11 *155:22 0.00098543
12 *155:16 0.00152088
13 *155:8 0.00249396
14 *155:4 0.00139602
15 *1497:D *1497:B 2.02872e-05
16 *1504:B *185:12 5.3304e-05
17 *1504:B *199:24 2.64616e-05
18 *155:8 *1413:D 7.24899e-05
19 *155:8 *1487:B 5.01499e-05
20 *155:16 *1460:A 6.17437e-06
21 *155:16 *181:24 1.36806e-05
22 *155:16 *224:16 0.000319209
23 *155:22 *167:22 0.000235358
24 *155:22 *202:12 0.000137651
25 *155:22 *222:36 0.00125661
26 *155:26 *163:12 0.000731338
27 *155:34 *210:36 0
28 *155:49 *185:8 0.00136081
29 *155:49 *188:111 0.000114083
30 *155:49 *212:14 7.12981e-05
31 *155:49 *224:16 0.000144856
32 *155:57 *179:106 5.58473e-05
33 *155:57 *185:12 0.000482838
34 *155:74 *1487:A 9.93794e-05
35 *155:74 *1487:B 4.29836e-05
36 *155:74 *1600:A 4.27272e-05
37 *155:74 *203:82 0.000165761
38 *1460:B *155:16 5.11621e-05
39 *1497:C *1497:D 5.3304e-05
40 *1565:RESET_B *155:57 5.80693e-05
41 *24:14 *155:26 0.00113208
42 *39:14 *1497:D 1.14876e-05
43 *42:10 *155:74 0.000165761
44 *47:105 *155:49 0
45 *84:14 *155:34 0.000303724
46 *86:16 *155:49 0.00081776
47 *86:18 *155:16 8.89036e-05
48 *86:18 *155:22 0.000250037
49 *86:18 *155:49 2.1212e-05
50 *87:10 *155:34 0.000107218
51 *94:14 *155:26 0.000144926
52 *103:35 *155:49 0
53 *106:49 *155:49 0.000618939
54 *115:54 *1497:D 0.000135037
55 *122:10 *155:22 0.00084083
56 *122:10 *155:26 0.00218636
57 *126:16 *155:16 0.000494149
58 *141:18 *155:49 0.000108681
*RES
1 *1487:X *155:4 23 
2 *155:4 *155:8 20.8621 
3 *155:8 *155:16 41.7036 
4 *155:16 *155:22 41.0171 
5 *155:22 *155:24 15 
6 *155:24 *155:26 36.7679 
7 *155:26 *155:34 35.0336 
8 *155:34 *1497:D 39.5743 
9 *155:8 *155:49 37.5343 
10 *155:49 *155:57 36.235 
11 *155:57 *1504:B 38.6214 
12 *155:4 *155:74 42.8843 
13 *155:74 *1488:B 23 
*END

*D_NET *156 0.0275335
*CONN
*I *1493:B I *D sky130_fd_sc_hd__nand2_1
*I *1492:B I *D sky130_fd_sc_hd__or2_1
*I *1489:A I *D sky130_fd_sc_hd__inv_2
*I *1488:X O *D sky130_fd_sc_hd__and2_2
*CAP
1 *1493:B 0.000151445
2 *1492:B 0
3 *1489:A 7.60219e-05
4 *1488:X 8.17792e-05
5 *156:37 0.000969413
6 *156:25 0.00112086
7 *156:23 0.00182919
8 *156:10 0.00259174
9 *156:8 0.00251572
10 *156:6 0.00191096
11 *1489:A *1601:A 0.000357953
12 *1493:B *181:18 0.000198184
13 *1493:B *216:24 0.000394157
14 *156:10 *180:56 0.00134781
15 *156:10 *201:38 0.000133316
16 *156:10 *205:26 0.000409726
17 *156:10 *205:57 0.000801463
18 *156:10 *205:78 0.000173671
19 *156:10 *208:30 0.00223792
20 *156:23 *1507:C 0.000354402
21 *156:23 *1525:A 0.000229801
22 *156:23 *1545:A 0.000229793
23 *156:23 *168:14 0.00185091
24 *156:23 *179:6 4.67488e-05
25 *156:23 *179:75 0.000254034
26 *156:23 *212:61 5.25144e-05
27 *156:23 *216:35 2.64616e-05
28 *156:37 *181:18 2.46399e-05
29 *156:37 *187:8 0.000121147
30 *156:37 *191:78 6.50721e-06
31 *156:37 *212:38 1.07299e-05
32 *156:37 *212:52 0.000193701
33 *156:37 *216:24 6.43792e-05
34 *156:37 *216:39 9.92927e-05
35 *1448:C *156:23 0.000220846
36 *1463:A *156:23 0.000384057
37 *1507:B *156:37 3.42705e-05
38 *1585:RESET_B *1489:A 0.000359654
39 *1587:D *156:23 3.28224e-05
40 *1587:RESET_B *156:23 9.1162e-05
41 *1588:RESET_B *156:37 8.79516e-05
42 *39:14 *156:10 0.000753835
43 *43:26 *156:10 0.000126408
44 *66:8 *156:6 9.41704e-05
45 *66:8 *156:23 2.3939e-05
46 *66:10 *156:10 0.000120578
47 *76:20 *156:10 4.60157e-05
48 *120:26 *156:10 0.000320076
49 *126:16 *156:23 0.000154829
50 *135:22 *156:10 0.000419661
51 *136:24 *156:10 0.000870718
52 *143:12 *156:10 0.00124714
53 *143:33 *156:10 0
54 *143:41 *156:10 0.000249387
55 *147:149 *156:6 2.69815e-05
56 *147:149 *156:23 0.0010026
*RES
1 *1488:X *156:6 24.5743 
2 *156:6 *156:8 15 
3 *156:8 *156:10 73.0386 
4 *156:10 *1489:A 41.9564 
5 *156:6 *156:23 46.7314 
6 *156:23 *156:25 15 
7 *156:25 *156:37 29.1479 
8 *156:37 *1492:B 23 
9 *156:25 *1493:B 43.4271 
*END

*D_NET *157 0.00767652
*CONN
*I *1490:C I *D sky130_fd_sc_hd__and3_1
*I *1489:Y O *D sky130_fd_sc_hd__inv_2
*CAP
1 *1490:C 0.000142997
2 *1489:Y 0.000635257
3 *157:12 0.0016916
4 *157:8 0.00218386
5 *157:12 *170:47 6.60558e-05
6 *157:12 *171:12 0.000662454
7 *157:12 *192:10 0
8 *157:12 *193:26 3.88504e-05
9 *157:12 *206:26 9.73644e-05
10 *157:12 *206:34 0.000259261
11 *157:12 *206:40 0
12 *157:12 *216:58 0.00016124
13 *157:12 *217:50 4.90891e-05
14 *157:12 *227:73 0
15 *1420:B *1490:C 0.000110999
16 *1585:RESET_B *157:8 0.000865565
17 *40:12 *157:12 9.90353e-05
18 *47:31 *157:12 0.00049038
19 *47:39 *1490:C 9.41704e-05
20 *48:18 *157:12 0
21 *143:49 *157:12 2.8337e-05
22 *154:14 *157:12 0
*RES
1 *1489:Y *157:8 47.6736 
2 *157:8 *157:12 49.3029 
3 *157:12 *1490:C 25.3614 
*END

*D_NET *158 0.0203068
*CONN
*I *1491:A I *D sky130_fd_sc_hd__buf_1
*I *1490:X O *D sky130_fd_sc_hd__and3_1
*CAP
1 *1491:A 0
2 *1490:X 0
3 *158:30 0.000728726
4 *158:20 0.00403995
5 *158:6 0.00331123
6 *158:20 *167:22 1.42045e-05
7 *158:20 *191:24 0
8 *158:20 *202:12 0.000376507
9 *158:20 *206:26 0.000347087
10 *158:30 *179:130 8.30566e-06
11 *158:30 *190:75 0.000427242
12 *30:6 *158:30 0.00186626
13 *32:10 *158:20 0.000135453
14 *43:26 *158:20 0.000289291
15 *54:18 *158:20 0.00272231
16 *82:8 *158:20 0.000594543
17 *123:12 *158:30 0.000223996
18 *130:34 *158:20 0.00339426
19 *132:8 *158:30 0.000918009
20 *144:10 *158:20 0.000909379
*RES
1 *1490:X *158:6 38 
2 *158:6 *158:20 48.1809 
3 *158:20 *158:30 48.2196 
4 *158:30 *1491:A 23 
*END

*D_NET *159 0.0121806
*CONN
*I *1494:B I *D sky130_fd_sc_hd__and3_1
*I *1492:X O *D sky130_fd_sc_hd__or2_1
*CAP
1 *1494:B 0
2 *1492:X 0
3 *159:16 0.00110195
4 *159:8 0.00333119
5 *159:6 0.00222924
6 *159:8 *169:10 0
7 *159:16 *212:71 0
8 *159:16 *227:99 0
9 *81:14 *159:8 3.53698e-05
10 *89:12 *159:16 0.000823096
11 *148:10 *159:8 0.00465972
*RES
1 *1492:X *159:6 38 
2 *159:6 *159:8 62.1221 
3 *159:8 *159:16 45.1629 
4 *159:16 *1494:B 38 
*END

*D_NET *160 0.0149424
*CONN
*I *1498:A2 I *D sky130_fd_sc_hd__a211oi_2
*I *1494:C I *D sky130_fd_sc_hd__and3_1
*I *1493:Y O *D sky130_fd_sc_hd__nand2_1
*CAP
1 *1498:A2 0
2 *1494:C 0
3 *1493:Y 0.000235423
4 *160:16 0.000659377
5 *160:10 0.00221906
6 *160:8 0.0017951
7 *160:8 *212:30 0.000297471
8 *160:8 *212:38 1.24376e-05
9 *160:10 *1415:B 0.000137391
10 *160:10 *168:29 0.00255815
11 *160:10 *212:63 0
12 *160:10 *214:10 0.000112826
13 *160:10 *217:31 9.59596e-05
14 *160:16 *1511:C 0.000182826
15 *160:16 *207:30 0.000259628
16 *160:16 *212:71 0.000138345
17 *160:16 *214:10 0.000254326
18 *34:18 *160:10 0.000310545
19 *34:26 *160:10 0.00236527
20 *34:26 *160:16 0.000803372
21 *74:22 *160:10 0.000212458
22 *74:22 *160:16 0.000119659
23 *84:26 *160:16 0.000296482
24 *96:10 *160:10 0.000345393
25 *108:26 *160:10 5.09165e-05
26 *149:23 *160:10 0.00147998
*RES
1 *1493:Y *160:8 41.48 
2 *160:8 *160:10 55.4314 
3 *160:10 *160:16 36.0664 
4 *160:16 *1494:C 23 
5 *160:10 *1498:A2 38 
*END

*D_NET *161 0.0249349
*CONN
*I *1495:A I *D sky130_fd_sc_hd__clkbuf_1
*I *1494:X O *D sky130_fd_sc_hd__and3_1
*CAP
1 *1495:A 0
2 *1494:X 4.68799e-05
3 *161:24 0.00947102
4 *161:10 0.0095179
5 *161:10 *1511:C 1.14452e-05
6 *161:10 *212:71 1.43557e-05
7 *161:24 *170:53 0.000251021
8 *161:24 *181:32 0.000145581
9 *161:24 *191:24 0.00381869
10 *161:24 *211:79 0
11 *161:24 *217:59 0.000175001
12 seg[4] *161:24 7.59021e-08
13 *44:26 *161:24 0
14 *72:10 *161:24 0.000127106
15 *74:22 *161:24 0.000962049
16 *84:26 *161:24 0.000100139
17 *99:10 *161:24 2.35658e-05
18 *110:26 *161:24 0.000224348
19 *129:66 *161:24 0
20 *136:24 *161:24 4.57385e-05
*RES
1 *1494:X *161:10 46.6732 
2 *161:10 *161:24 48.798 
3 *161:24 *1495:A 38 
*END

*D_NET *162 0.0250701
*CONN
*I *1498:A1 I *D sky130_fd_sc_hd__a211oi_2
*I *1496:Y O *D sky130_fd_sc_hd__inv_2
*CAP
1 *1498:A1 0.000126328
2 *1496:Y 1.48155e-05
3 *162:24 0.00667428
4 *162:10 0.00656277
5 *1498:A1 *183:16 0.000118899
6 *162:24 *185:12 0.000283673
7 *162:24 *187:20 0.000183334
8 *162:24 *188:70 0.00022506
9 *162:24 *190:41 0.000109432
10 *162:24 *201:14 0.000127194
11 *162:24 *201:105 0.000190817
12 *162:24 *207:30 0.000101533
13 *162:24 *215:14 8.22421e-06
14 *162:24 *215:29 0.000102921
15 *162:24 *217:29 0.000234154
16 *162:24 *217:31 0.000102679
17 *1581:D *162:24 0.000114489
18 *11:13 *162:24 0.00407068
19 *33:22 *162:24 0.000212548
20 *34:26 *162:24 0.000108422
21 *47:189 *162:24 2.11157e-05
22 *58:20 *162:24 0.00301784
23 *74:22 *162:24 0.000247511
24 *79:14 *1498:A1 0.000181927
25 *81:18 *1498:A1 1.21972e-05
26 *88:30 *162:24 0.000125494
27 *97:44 *162:24 0.000247786
28 *97:76 *162:24 0.000133015
29 *105:29 *162:24 0.000159869
30 *107:24 *162:24 0
31 *110:26 *162:24 0.00122842
32 *123:12 *162:10 2.26406e-05
*RES
1 *1496:Y *162:10 46.3211 
2 *162:10 *162:24 46.6613 
3 *162:24 *1498:A1 41.1693 
*END

*D_NET *163 0.0186278
*CONN
*I *1499:B I *D sky130_fd_sc_hd__or2_1
*I *1500:B I *D sky130_fd_sc_hd__nand2_2
*I *1498:B1 I *D sky130_fd_sc_hd__a211oi_2
*I *1497:X O *D sky130_fd_sc_hd__and4_1
*CAP
1 *1499:B 0.000226125
2 *1500:B 0.000104983
3 *1498:B1 0
4 *1497:X 2.63783e-05
5 *163:56 0.00120148
6 *163:50 0.0018139
7 *163:26 0.000659739
8 *163:16 0.00185635
9 *163:12 0.00295136
10 *163:8 0.00104757
11 *1499:B *1499:A 8.12496e-05
12 *1499:B *186:80 0.00064404
13 *1499:B *203:14 0.000220592
14 *1500:B *188:20 2.40392e-05
15 *1500:B *213:77 0.000124482
16 *163:16 *1591:CLK 1.21972e-05
17 *163:16 *183:96 0.000180307
18 *163:16 *183:103 0.000168934
19 *163:16 *188:14 0.000353638
20 *163:26 *183:64 0
21 *163:26 *188:20 9.5876e-06
22 *163:26 *213:77 0.000142969
23 *163:26 *215:14 0.000163044
24 *163:50 *1591:CLK 0.000158246
25 *163:56 *205:49 0.00035597
26 *163:56 *226:37 0.000786331
27 *1497:C *163:8 0.000187129
28 *1591:D *163:16 2.92911e-06
29 *22:16 *163:16 3.06971e-05
30 *22:16 *163:26 0.000135037
31 *24:14 *163:12 3.70094e-05
32 *24:14 *163:50 5.3304e-05
33 *33:8 *163:26 0.000110258
34 *40:12 *1499:B 0.000264776
35 *47:189 *163:26 4.77164e-06
36 *48:12 *163:26 1.01793e-05
37 *94:14 *163:12 0
38 *96:27 *163:56 0.000988102
39 *102:28 *163:56 0.000153344
40 *106:10 *163:50 0.000587663
41 *115:54 *163:8 0.000185434
42 *119:10 *163:50 0.000267844
43 *128:18 *163:12 0.000100926
44 *134:46 *163:12 0.000675131
45 *142:28 *163:56 0.000788468
46 *145:10 *163:12 0
47 *147:26 *163:12 0
48 *155:26 *163:12 0.000731338
*RES
1 *1497:X *163:8 40.0507 
2 *163:8 *163:12 38.0343 
3 *163:12 *163:16 29.4379 
4 *163:16 *163:26 40.0257 
5 *163:26 *1498:B1 38 
6 *163:16 *1500:B 39.9057 
7 *163:12 *163:50 44.5829 
8 *163:50 *163:56 39.6707 
9 *163:56 *1499:B 45.2914 
*END

*D_NET *164 0.00494362
*CONN
*I *1501:B I *D sky130_fd_sc_hd__and3_1
*I *1499:X O *D sky130_fd_sc_hd__or2_1
*CAP
1 *1501:B 0
2 *1499:X 5.43738e-05
3 *164:12 0.000685769
4 *164:8 0.000740143
5 *164:8 *203:14 2.64616e-05
6 *164:12 *177:12 0.000271821
7 *164:12 *191:24 0.000102254
8 *164:12 *194:16 0.000160062
9 *45:20 *164:12 0.00127823
10 *95:53 *164:12 0.00106655
11 *115:20 *164:12 7.16984e-05
12 *115:30 *164:12 0.000486254
*RES
1 *1499:X *164:8 38.6214 
2 *164:8 *164:12 40.4993 
3 *164:12 *1501:B 23 
*END

*D_NET *165 0.0270205
*CONN
*I *1505:A2 I *D sky130_fd_sc_hd__a221oi_2
*I *1501:C I *D sky130_fd_sc_hd__and3_1
*I *1500:Y O *D sky130_fd_sc_hd__nand2_2
*CAP
1 *1505:A2 0.000141791
2 *1501:C 0.000432453
3 *1500:Y 0
4 *165:37 0.00218078
5 *165:35 0.00238604
6 *165:16 0.00187593
7 *165:10 0.00196848
8 *165:4 0.000872061
9 *1501:C *184:84 2.65157e-05
10 *1505:A2 *1505:B1 4.05745e-05
11 *1505:A2 *201:76 0.000209579
12 *165:10 *1404:A2 7.40718e-05
13 *165:10 *1451:B 2.56967e-05
14 *165:10 *187:61 0.000386035
15 *165:10 *214:31 0.000153015
16 *165:35 *184:108 9.65021e-05
17 *165:35 *191:24 0.000102381
18 *165:37 *1519:A1 9.65713e-05
19 *165:37 *1572:CLK 9.74416e-05
20 *165:37 *179:156 0.0010325
21 *165:37 *181:32 0
22 *165:37 *184:112 9.98995e-05
23 *165:37 *191:24 0.000380676
24 *165:37 *200:100 0.000623817
25 *165:37 *200:106 0.000856175
26 *1449:A *165:10 0.000100069
27 *1505:B2 *1505:A2 0.00030805
28 *1562:RESET_B *1501:C 0.000590779
29 *1562:RESET_B *165:35 0.000853099
30 *1566:RESET_B *165:16 0.000816087
31 *1577:D *165:37 0.000370654
32 *30:10 *165:37 0.00367498
33 *61:24 *165:16 0.000148047
34 *91:8 *165:10 5.56279e-05
35 *92:22 *165:10 0.00156461
36 *94:30 *165:16 1.748e-05
37 *95:24 *165:10 0.00232516
38 *105:127 *1501:C 0.000731278
39 *105:127 *165:35 0.000812133
40 *105:140 *165:35 4.92689e-05
41 *105:140 *165:37 0.000204216
42 *120:18 *165:37 0.000110218
43 *120:60 *165:37 0.000106443
44 *127:24 *165:10 9.4798e-06
45 *130:24 *165:16 0
46 *135:14 *165:16 6.22155e-06
47 *135:22 *165:10 7.57281e-06
*RES
1 *1500:Y *165:4 23 
2 *165:4 *165:10 44.0518 
3 *165:10 *165:16 18.8037 
4 *165:16 *1501:C 48.6782 
5 *165:16 *165:35 42.6875 
6 *165:35 *165:37 64.5871 
7 *165:37 *1505:A2 42.4329 
*END

*D_NET *166 0.0205972
*CONN
*I *1502:A I *D sky130_fd_sc_hd__buf_1
*I *1501:X O *D sky130_fd_sc_hd__and3_1
*CAP
1 *1502:A 0
2 *1501:X 4.37237e-05
3 *166:36 0.00425987
4 *166:16 0.00523399
5 *166:8 0.00101784
6 *166:16 *1512:A 0.000482556
7 *166:36 *1594:A 4.02281e-06
8 *166:36 *167:22 0.000960094
9 *166:36 *182:18 0.00193176
10 *166:36 *182:39 2.35702e-05
11 *166:36 *182:48 0.00184875
12 *166:36 *185:8 0.000185018
13 *166:36 *188:119 0.000175222
14 *166:36 *222:36 0.000118027
15 *166:36 *223:31 0
16 *166:36 *224:10 0.000219712
17 *166:36 *224:16 0.000172983
18 *166:36 *227:69 0.000332587
19 *1566:RESET_B *166:36 5.93199e-05
20 *61:24 *166:16 1.05441e-05
21 *77:16 *166:16 0.000349898
22 *86:18 *166:36 0.000132378
23 *87:10 *166:36 0.000191591
24 *87:26 *166:36 0.00160245
25 *87:62 *166:36 0.000251267
26 *94:30 *166:36 6.38739e-05
27 *104:39 *166:8 0.000113235
28 *115:30 *166:8 0.000113235
29 *120:40 *166:16 0.000275224
30 *128:18 *166:36 0
31 *130:34 *166:36 0
32 *135:14 *166:36 0.000424474
33 *135:22 *166:16 0
*RES
1 *1501:X *166:8 39.5536 
2 *166:8 *166:16 46.8511 
3 *166:16 *166:36 49.0462 
4 *166:36 *1502:A 38 
*END

*D_NET *167 0.0223336
*CONN
*I *1505:A1 I *D sky130_fd_sc_hd__a221oi_2
*I *1503:Y O *D sky130_fd_sc_hd__inv_2
*CAP
1 *1505:A1 0
2 *1503:Y 0.000193836
3 *167:28 0.000286169
4 *167:22 0.00697431
5 *167:10 0.00688198
6 *167:10 *207:20 0.000203096
7 *167:22 *187:34 1.75131e-05
8 *167:22 *212:14 0.00026597
9 *167:22 *222:24 0.000347507
10 *167:22 *222:36 0.000127194
11 *167:28 *180:101 0
12 *167:28 *201:72 0.000404592
13 *167:28 *202:66 0
14 *1417:A1 *167:22 2.48383e-05
15 *47:99 *167:22 0.000511353
16 *47:130 *167:22 0
17 *86:16 *167:22 0.000147249
18 *86:18 *167:22 0.00014977
19 *87:26 *167:22 0.0015954
20 *93:49 *167:22 9.5795e-05
21 *105:6 *167:10 4.05745e-05
22 *105:12 *167:10 6.17437e-06
23 *122:32 *167:22 0.000546629
24 *128:18 *167:22 0
25 *130:34 *167:22 0.00183513
26 *133:22 *167:22 0
27 *142:22 *167:22 0.000269696
28 *146:10 *167:10 0.000199136
29 *155:22 *167:22 0.000235358
30 *158:20 *167:22 1.42045e-05
31 *166:36 *167:22 0.000960094
*RES
1 *1503:Y *167:10 42.3604 
2 *167:10 *167:22 42.9653 
3 *167:22 *167:28 28.6032 
4 *167:28 *1505:A1 23 
*END

*D_NET *168 0.0298466
*CONN
*I *1505:B1 I *D sky130_fd_sc_hd__a221oi_2
*I *1506:A2 I *D sky130_fd_sc_hd__a21oi_1
*I *1507:C I *D sky130_fd_sc_hd__and3_2
*I *1504:X O *D sky130_fd_sc_hd__and2_2
*CAP
1 *1505:B1 0.00101548
2 *1506:A2 0.000198106
3 *1507:C 0.000367844
4 *1504:X 0.000452954
5 *168:44 0.00251987
6 *168:29 0.00109434
7 *168:14 0.00228182
8 *168:12 0.00206897
9 *168:8 0.00300857
10 *1505:B1 *195:10 0.000431267
11 *1505:B1 *201:76 6.57815e-06
12 *1506:A2 *169:6 8.60915e-05
13 *1506:A2 *216:41 0.000265521
14 *1506:A2 *216:52 0.000135037
15 *1507:C *212:52 5.88615e-05
16 *1507:C *212:61 1.90755e-05
17 *1507:C *216:35 1.21972e-05
18 *168:8 *222:10 0
19 *168:12 *179:75 0.0004805
20 *168:12 *179:96 0.00100052
21 *168:12 *222:10 0
22 *168:44 *202:76 0.0019915
23 *1448:B *168:14 0.000304813
24 *1505:A2 *1505:B1 4.05745e-05
25 *1505:B2 *1505:B1 0.000557034
26 *1519:B1 *1505:B1 0.00107653
27 *1519:B1 *168:44 1.41129e-05
28 *1565:RESET_B *168:8 0.000329507
29 *1565:RESET_B *168:12 0.000506538
30 *27:16 *168:12 0.000928265
31 *34:18 *168:29 0.000210292
32 *74:22 *168:29 0.000133003
33 *96:10 *168:29 0.00256038
34 *100:16 *168:12 0.000187117
35 *129:93 *1505:B1 1.07201e-06
36 *133:22 *168:8 0.000124559
37 *133:22 *168:12 0.000256102
38 *140:10 *168:12 5.9679e-05
39 *147:149 *168:14 0.000298503
40 *156:23 *1507:C 0.000354402
41 *156:23 *168:14 0.00185091
42 *160:10 *168:29 0.00255815
*RES
1 *1504:X *168:8 47.3007 
2 *168:8 *168:12 44.725 
3 *168:12 *168:14 21.1079 
4 *168:14 *1507:C 29.7321 
5 *168:14 *168:29 49.655 
6 *168:29 *1506:A2 42.4329 
7 *168:8 *168:44 38.0343 
8 *168:44 *1505:B1 44.5221 
*END

*D_NET *169 0.0106925
*CONN
*I *1508:B I *D sky130_fd_sc_hd__nor3_1
*I *1506:Y O *D sky130_fd_sc_hd__a21oi_1
*CAP
1 *1508:B 0
2 *1506:Y 0.00149336
3 *169:10 0.00288783
4 *169:8 0.00288783
5 *169:6 0.00149336
6 *169:6 *216:41 7.15459e-05
7 *1506:A2 *169:6 8.60915e-05
8 *81:12 *169:10 0
9 *81:14 *169:10 0
10 *84:40 *169:10 0.000234815
11 *84:51 *169:10 0.00144989
12 *88:42 *169:10 3.76854e-05
13 *130:34 *169:10 5.01385e-05
14 *159:8 *169:10 0
*RES
1 *1506:Y *169:6 40.2964 
2 *169:6 *169:8 15 
3 *169:8 *169:10 63.5307 
4 *169:10 *1508:B 38 
*END

*D_NET *170 0.0358619
*CONN
*I *1508:C I *D sky130_fd_sc_hd__nor3_1
*I *1513:B1 I *D sky130_fd_sc_hd__a21o_1
*I *1509:B I *D sky130_fd_sc_hd__or2_1
*I *1510:B I *D sky130_fd_sc_hd__nand2_1
*I *1507:X O *D sky130_fd_sc_hd__and3_2
*CAP
1 *1508:C 0.000328244
2 *1513:B1 0.000242349
3 *1509:B 0
4 *1510:B 0
5 *1507:X 4.99221e-05
6 *170:73 0.0016311
7 *170:53 0.000741888
8 *170:47 0.00128383
9 *170:39 0.0028379
10 *170:37 0.00368794
11 *170:24 0.000641864
12 *170:14 0.00251807
13 *170:12 0.00168391
14 *170:8 0.00231012
15 *1513:B1 *174:6 0.000785672
16 *170:8 *212:52 5.3304e-05
17 *170:12 *179:28 0.000538918
18 *170:12 *179:36 0.000176683
19 *170:12 *187:14 0.000163256
20 *170:12 *189:53 0.000209849
21 *170:14 *189:53 0.000773392
22 *170:14 *189:63 0.000601755
23 *170:24 *181:105 0.000171906
24 *170:24 *189:63 0.000293776
25 *170:24 *191:86 0
26 *170:24 *227:99 0
27 *170:37 *214:8 0.000199449
28 *170:39 *1441:A 0.00032099
29 *170:39 *193:16 0.000880446
30 *170:47 *174:6 0.000354752
31 *170:47 *188:160 0.000141052
32 *170:47 *227:73 0.000138718
33 *170:53 *217:59 0.00128483
34 *170:73 *187:14 0.000221
35 *170:73 *212:38 0
36 *170:73 *216:24 0
37 *1570:RESET_B *170:24 6.02116e-05
38 *1582:D *170:37 2.23803e-06
39 *20:10 *170:53 0
40 *29:8 *170:14 0.000417808
41 *29:8 *170:24 0.000308706
42 *37:10 *170:53 0
43 *39:8 *170:24 0.000308946
44 *46:14 *170:39 3.98818e-05
45 *47:111 *1508:C 0.000581348
46 *58:20 *170:12 0.00021222
47 *58:20 *170:14 0.000250105
48 *58:20 *170:73 0.000191591
49 *74:8 *170:12 0.000346264
50 *76:34 *170:12 0.000408936
51 *79:10 *170:12 0.000552816
52 *79:10 *170:14 0.00143148
53 *93:55 *1513:B1 0.000778224
54 *93:55 *170:47 0.000608063
55 *105:127 *170:53 1.13477e-05
56 *122:6 *170:39 0.000418254
57 *131:14 *170:12 0.00128104
58 *131:14 *170:73 0.00203361
59 *154:14 *170:47 3.47879e-05
60 *157:12 *170:47 6.60558e-05
61 *161:24 *170:53 0.000251021
*RES
1 *1507:X *170:8 38.6214 
2 *170:8 *170:12 32.7596 
3 *170:12 *170:14 30.1289 
4 *170:14 *170:24 44.3343 
5 *170:24 *1510:B 38 
6 *170:14 *170:37 29.935 
7 *170:37 *170:39 42.5471 
8 *170:39 *170:47 39.7771 
9 *170:47 *170:53 47.7521 
10 *170:53 *1509:B 23 
11 *170:47 *1513:B1 33.1914 
12 *170:8 *170:73 47.19 
13 *170:73 *1508:C 31.4307 
*END

*D_NET *171 0.0126047
*CONN
*I *1511:B I *D sky130_fd_sc_hd__and3_1
*I *1509:X O *D sky130_fd_sc_hd__or2_1
*CAP
1 *1511:B 0
2 *1509:X 0.000353014
3 *171:18 0.00108805
4 *171:12 0.00181676
5 *171:8 0.00108172
6 *171:12 *184:92 8.91405e-05
7 *171:12 *206:40 0.000269845
8 *171:18 *173:6 0.000771462
9 *171:18 *206:40 0.00014196
10 *40:12 *171:12 0.000316049
11 *71:6 *171:8 0.000644544
12 *84:14 *171:18 0.000820198
13 *84:26 *171:18 0.000988072
14 *106:14 *171:18 0.00119941
15 *145:6 *171:18 0.00236202
16 *157:12 *171:12 0.000662454
*RES
1 *1509:X *171:8 45.2914 
2 *171:8 *171:12 34.1607 
3 *171:12 *171:18 44.0179 
4 *171:18 *1511:B 23 
*END

*D_NET *172 0.00381045
*CONN
*I *1511:C I *D sky130_fd_sc_hd__and3_1
*I *1510:Y O *D sky130_fd_sc_hd__nand2_1
*CAP
1 *1511:C 0.000640817
2 *1510:Y 0.00053274
3 *172:8 0.00117356
4 *1511:C *212:71 0.000286281
5 *172:8 *1510:A 0.000744485
6 *1570:RESET_B *1511:C 0
7 *84:26 *1511:C 0.000121569
8 *105:52 *1511:C 0.000103438
9 *147:57 *172:8 1.32939e-05
10 *160:16 *1511:C 0.000182826
11 *161:10 *1511:C 1.14452e-05
*RES
1 *1510:Y *172:8 46.7207 
2 *172:8 *1511:C 47.9636 
*END

*D_NET *173 0.0111904
*CONN
*I *1512:A I *D sky130_fd_sc_hd__clkbuf_1
*I *1511:X O *D sky130_fd_sc_hd__and3_1
*CAP
1 *1512:A 0.000429775
2 *1511:X 0.00181246
3 *173:12 0.00087868
4 *173:6 0.00226137
5 *173:12 *218:18 0.0011674
6 *77:16 *1512:A 0.00111746
7 *79:14 *1512:A 0.000157643
8 *119:10 *173:12 0.00116969
9 *145:6 *173:6 0.000941917
10 *166:16 *1512:A 0.000482556
11 *171:18 *173:6 0.000771462
*RES
1 *1511:X *173:6 49.3486 
2 *173:6 *173:12 45.9914 
3 *173:12 *1512:A 35.5321 
*END

*D_NET *174 0.00379137
*CONN
*I *1514:C1 I *D sky130_fd_sc_hd__o211a_1
*I *1513:X O *D sky130_fd_sc_hd__a21o_1
*CAP
1 *1514:C1 0
2 *1513:X 0.000936046
3 *174:14 0.000197727
4 *174:6 0.00113377
5 *174:14 *184:24 0.000107852
6 *1513:B1 *174:6 0.000785672
7 *84:8 *174:14 0.000193742
8 *115:30 *174:14 7.71698e-05
9 *115:36 *174:14 4.6318e-06
10 *170:47 *174:6 0.000354752
*RES
1 *1513:X *174:6 36.9614 
2 *174:6 *174:14 35.3443 
3 *174:14 *1514:C1 23 
*END

*D_NET *175 0.0333184
*CONN
*I *1519:A2 I *D sky130_fd_sc_hd__a21oi_1
*I *1524:A2 I *D sky130_fd_sc_hd__a21boi_2
*I *1518:B I *D sky130_fd_sc_hd__nor2_1
*I *1516:C I *D sky130_fd_sc_hd__and3b_1
*I *1515:Y O *D sky130_fd_sc_hd__nor2_2
*CAP
1 *1519:A2 0
2 *1524:A2 0.00012337
3 *1518:B 7.33178e-05
4 *1516:C 0
5 *1515:Y 0.000423371
6 *175:89 8.08024e-05
7 *175:83 0.0028129
8 *175:81 0.0032707
9 *175:66 0.00197436
10 *175:62 0.00334976
11 *175:43 0.00172537
12 *175:28 0.000474658
13 *175:18 0.00328702
14 *175:8 0.00254386
15 *1518:B *181:24 9.74801e-05
16 *175:8 *1515:A 0.000162826
17 *175:8 *188:148 0.000233367
18 *175:8 *215:12 1.59071e-05
19 *175:18 *1515:A 5.92968e-06
20 *175:18 *180:29 0.00011886
21 *175:18 *183:96 5.91754e-05
22 *175:18 *187:50 0
23 *175:18 *188:14 0.000295692
24 *175:18 *188:148 0.000107232
25 *175:18 *219:49 0.000107959
26 *175:18 *220:10 0.000102381
27 *175:18 *227:112 0
28 *175:28 *176:22 1.05658e-05
29 *175:28 *207:20 0
30 *175:43 *179:18 5.02657e-05
31 *175:43 *219:49 0
32 *175:62 *1483:B 0.000256538
33 *175:62 *179:18 0.000563884
34 *175:62 *208:94 0.000276002
35 *175:62 *208:111 0.000394897
36 *175:62 *213:33 0.00121154
37 *175:62 *219:49 0
38 *175:62 *222:24 5.40866e-05
39 *175:62 *225:75 4.67488e-05
40 *175:66 *1405:A 9.65021e-05
41 *175:66 *1450:B1 0.000137361
42 *175:66 *191:68 0.00031084
43 *175:66 *221:94 0.000229471
44 *175:66 *225:75 0.000442836
45 *175:81 *191:68 0.000309298
46 *175:81 *213:33 0.000914096
47 *175:83 *202:72 0.00100834
48 *175:89 *1519:A1 0.000161613
49 *175:89 *1575:CLK 9.28078e-06
50 *175:89 *186:21 0.000159447
51 *1580:D *175:83 4.07306e-05
52 *1580:RESET_B *175:83 0.000997582
53 *11:23 *175:28 0.000124704
54 *70:8 *175:66 0.000140308
55 *81:12 *1524:A2 0.000385726
56 *83:12 *175:18 0.000963074
57 *88:24 *1518:B 5.79559e-05
58 *91:10 *1524:A2 0.000133494
59 *92:18 *175:18 0.000138351
60 *93:49 *175:18 0.000595502
61 *97:61 *175:66 1.03955e-05
62 *101:12 *175:81 0
63 *108:26 *175:28 0.000591402
64 *109:12 *1518:B 6.23934e-05
65 *115:104 *175:66 0.000173361
66 *127:24 *175:18 7.60891e-05
67 *128:8 *175:66 5.56279e-05
68 *133:28 *175:18 0
69 *137:24 *175:18 0.000443293
70 *137:24 *175:43 0.000238547
*RES
1 *1515:Y *175:8 44.3386 
2 *175:8 *175:18 36.9367 
3 *175:18 *175:28 32.5363 
4 *175:28 *1516:C 23 
5 *175:18 *175:43 18.3513 
6 *175:43 *1518:B 40.0507 
7 *175:43 *175:62 41.6593 
8 *175:62 *175:66 48.0186 
9 *175:66 *1524:A2 43.075 
10 *175:62 *175:81 42.8221 
11 *175:81 *175:83 38.7357 
12 *175:83 *175:89 32.2579 
13 *175:89 *1519:A2 23 
*END

*D_NET *176 0.0165031
*CONN
*I *1522:C I *D sky130_fd_sc_hd__or3_1
*I *1517:C1 I *D sky130_fd_sc_hd__a2111o_1
*I *1516:X O *D sky130_fd_sc_hd__and3b_1
*CAP
1 *1522:C 0
2 *1517:C1 0.000631003
3 *1516:X 0
4 *176:47 0.00118464
5 *176:41 0.00250908
6 *176:37 0.00180925
7 *176:22 0.00166208
8 *176:4 0.00151589
9 *1517:C1 *1517:D1 0.000721186
10 *1517:C1 *188:38 8.26807e-05
11 *176:22 *183:83 0
12 *176:22 *187:46 0.000202254
13 *176:22 *207:20 0.000254457
14 *176:37 *179:18 0.000138911
15 *176:37 *213:33 0.000292865
16 *176:41 *194:12 0.000623816
17 *176:41 *225:14 0.000262864
18 *176:47 *190:69 0.000326134
19 *176:47 *223:35 0.00049391
20 *176:47 *225:67 0
21 *176:47 *227:14 4.72559e-05
22 *1417:A1 *176:22 2.36786e-05
23 *1571:RESET_B *1517:C1 9.52416e-05
24 *1587:RESET_B *176:47 0.000186846
25 *23:16 *176:22 0.000387341
26 *31:14 *176:47 0.000469508
27 *44:10 *176:47 2.12234e-05
28 *85:31 *176:47 0.000368015
29 *88:34 *1517:C1 0.000805251
30 *97:22 *1517:C1 0.00051492
31 *100:10 *176:47 0.000111852
32 *102:16 *176:47 3.03765e-05
33 *123:8 *176:47 2.64616e-05
34 *123:12 *176:47 6.25829e-05
35 *129:120 *176:22 5.43589e-05
36 *139:33 *176:47 0.000137651
37 *147:107 *176:37 0.000438938
38 *175:28 *176:22 1.05658e-05
*RES
1 *1516:X *176:4 23 
2 *176:4 *176:22 49.0157 
3 *176:22 *1517:C1 39.3436 
4 *176:4 *176:37 38.9279 
5 *176:37 *176:41 31.82 
6 *176:41 *176:47 45.595 
7 *176:47 *1522:C 23 
*END

*D_NET *177 0.00478656
*CONN
*I *1521:A I *D sky130_fd_sc_hd__buf_1
*I *1520:X O *D sky130_fd_sc_hd__or3_1
*CAP
1 *1521:A 0
2 *1520:X 0.00103101
3 *177:12 0.000252129
4 *177:6 0.00128313
5 *177:6 *193:26 0.00030373
6 *177:6 *205:18 2.80924e-06
7 *177:12 *194:16 0.000690288
8 *46:10 *177:6 0.000520472
9 *47:20 *177:6 9.00923e-05
10 *47:31 *177:6 0.00013961
11 *115:30 *177:12 0.000201473
12 *164:12 *177:12 0.000271821
*RES
1 *1520:X *177:6 37.4379 
2 *177:6 *177:12 39.3007 
3 *177:12 *1521:A 23 
*END

*D_NET *178 0.00858116
*CONN
*I *1523:A I *D sky130_fd_sc_hd__clkbuf_1
*I *1522:X O *D sky130_fd_sc_hd__or3_1
*CAP
1 *1523:A 0
2 *1522:X 0.000127464
3 *178:22 0.000866043
4 *178:14 0.00220246
5 *178:10 0.00146388
6 *178:10 *190:69 0
7 *178:10 *190:75 0
8 *178:14 *179:140 0.000472403
9 *178:14 *211:22 0.00188279
10 *178:22 *206:6 2.93845e-05
11 *1470:A *178:10 1.36794e-05
12 *26:22 *178:22 0.000277883
13 *99:10 *178:22 0.000818295
14 *129:93 *178:22 1.22773e-05
15 *139:14 *178:14 4.65096e-05
16 *139:33 *178:10 1.83327e-05
17 *139:33 *178:14 0.000320314
18 *143:8 *178:14 2.94414e-05
*RES
1 *1522:X *178:10 40.175 
2 *178:10 *178:14 45.16 
3 *178:14 *178:22 48.8707 
4 *178:22 *1523:A 23 
*END

*D_NET *179 0.0452989
*CONN
*I *1528:A I *D sky130_fd_sc_hd__inv_2
*I *1529:A I *D sky130_fd_sc_hd__inv_2
*I *1535:A I *D sky130_fd_sc_hd__inv_2
*I *1530:A I *D sky130_fd_sc_hd__inv_2
*I *1532:A I *D sky130_fd_sc_hd__inv_2
*I *1534:A I *D sky130_fd_sc_hd__inv_2
*I *1531:A I *D sky130_fd_sc_hd__inv_2
*I *1527:A I *D sky130_fd_sc_hd__inv_2
*I *1526:A I *D sky130_fd_sc_hd__inv_2
*I *1533:A I *D sky130_fd_sc_hd__inv_2
*I *1525:X O *D sky130_fd_sc_hd__buf_4
*CAP
1 *1528:A 0
2 *1529:A 0
3 *1535:A 0.000254309
4 *1530:A 0
5 *1532:A 0
6 *1534:A 0.000800825
7 *1531:A 0
8 *1527:A 0
9 *1526:A 0.00026057
10 *1533:A 0
11 *1525:X 4.89752e-05
12 *179:156 0.000363329
13 *179:148 0.00108275
14 *179:140 0.00136047
15 *179:132 0.00105151
16 *179:130 0.000695108
17 *179:106 0.00142042
18 *179:100 0.00122487
19 *179:96 0.000693726
20 *179:75 0.00146236
21 *179:36 0.00081967
22 *179:28 0.0012261
23 *179:24 0.00213837
24 *179:18 0.00270551
25 *179:6 0.00159692
26 *1526:A *183:83 1.06875e-05
27 *1534:A *216:22 0.00236571
28 *179:18 *213:33 0.000872429
29 *179:18 *219:49 0
30 *179:24 *185:41 0.000503873
31 *179:24 *190:61 1.01436e-05
32 *179:24 *213:33 0.000138145
33 *179:28 *189:38 9.99325e-05
34 *179:36 *189:38 0.000302165
35 *179:36 *189:53 0.00175668
36 *179:36 *189:63 0.000248151
37 *179:36 *196:8 0.000486169
38 *179:36 *227:99 0.00101598
39 *179:75 *1596:A 4.77911e-05
40 *179:96 *222:10 0
41 *179:106 *213:22 2.70134e-05
42 *179:130 *190:75 9.28078e-06
43 *179:130 *212:8 0.000332763
44 *179:140 *180:67 0.000175063
45 *179:148 *186:10 0.000655146
46 *179:148 *187:130 9.84794e-05
47 *179:148 *187:138 0.000105479
48 *179:156 *189:22 5.56356e-05
49 *179:156 *200:100 0.000852794
50 *1432:A *179:156 5.3304e-05
51 *1565:RESET_B *1534:A 9.67842e-05
52 *1565:RESET_B *179:96 1.01436e-05
53 *1565:RESET_B *179:106 0.000465994
54 *1569:RESET_B *1526:A 0.000489201
55 *1580:RESET_B *179:100 0.000224162
56 *1580:RESET_B *179:130 0.00105436
57 *1584:D *1534:A 0.000267774
58 *30:6 *179:132 0.00041809
59 *46:26 *1526:A 0.000341317
60 *50:12 *179:148 2.70366e-05
61 *51:10 *179:148 0.00081537
62 *54:18 *179:75 0.000226697
63 *58:20 *179:36 0.000433675
64 *76:34 *179:28 0.000336447
65 *92:18 *179:18 0.000399274
66 *92:18 *179:24 3.70835e-05
67 *100:16 *179:75 0.000268079
68 *103:33 *179:75 0.000327148
69 *103:35 *179:75 5.3686e-05
70 *103:35 *179:106 0.000825775
71 *107:24 *1534:A 0.000303628
72 *120:60 *179:156 8.67978e-05
73 *123:12 *179:130 4.12683e-05
74 *124:8 *179:100 0.000226655
75 *124:8 *179:130 0.000127747
76 *126:16 *179:6 9.41704e-05
77 *126:16 *179:75 0.000492729
78 *130:34 *179:132 0.000112764
79 *132:8 *179:132 0.000763741
80 *133:22 *179:75 0.000101191
81 *133:22 *179:96 0.000120007
82 *133:22 *179:106 0.000133003
83 *134:14 *179:140 0.000292031
84 *134:80 *179:140 0.000356131
85 *138:10 *179:96 3.21208e-05
86 *139:39 *179:75 1.14452e-05
87 *139:39 *179:96 3.69334e-05
88 *139:43 *179:96 9.58714e-05
89 *140:10 *179:96 0.000504456
90 *155:57 *179:106 5.58473e-05
91 *156:23 *179:6 4.67488e-05
92 *156:23 *179:75 0.000254034
93 *158:30 *179:130 8.30566e-06
94 *165:37 *179:156 0.0010325
95 *168:12 *179:75 0.0004805
96 *168:12 *179:96 0.00100052
97 *170:12 *179:28 0.000538918
98 *170:12 *179:36 0.000176683
99 *175:43 *179:18 5.02657e-05
100 *175:62 *179:18 0.000563884
101 *176:37 *179:18 0.000138911
102 *178:14 *179:140 0.000472403
*RES
1 *1525:X *179:6 24.0979 
2 *179:6 *179:18 34.1814 
3 *179:18 *179:24 39.4429 
4 *179:24 *179:28 22.1879 
5 *179:28 *179:36 46.5479 
6 *179:36 *1533:A 23 
7 *179:28 *1526:A 45.3329 
8 *179:18 *1527:A 38 
9 *179:6 *179:75 37.33 
10 *179:75 *1531:A 38 
11 *179:75 *179:96 45.8879 
12 *179:96 *179:100 17.5271 
13 *179:100 *179:106 44.5829 
14 *179:106 *1534:A 48.8721 
15 *179:100 *1532:A 23 
16 *179:100 *179:130 44.9557 
17 *179:130 *179:132 8.24429 
18 *179:132 *179:140 49.0986 
19 *179:140 *179:148 44.8936 
20 *179:148 *179:156 44.5 
21 *179:156 *1530:A 23 
22 *179:148 *1535:A 26.48 
23 *179:140 *1529:A 23 
24 *179:132 *1528:A 23 
*END

*D_NET *180 0.0460675
*CONN
*I *1543:A I *D sky130_fd_sc_hd__inv_2
*I *1544:A I *D sky130_fd_sc_hd__inv_2
*I *1538:A I *D sky130_fd_sc_hd__inv_2
*I *1537:A I *D sky130_fd_sc_hd__inv_2
*I *1540:A I *D sky130_fd_sc_hd__inv_2
*I *1542:A I *D sky130_fd_sc_hd__inv_2
*I *1541:A I *D sky130_fd_sc_hd__inv_2
*I *1545:A I *D sky130_fd_sc_hd__inv_2
*I *1539:A I *D sky130_fd_sc_hd__inv_2
*I *1546:A I *D sky130_fd_sc_hd__inv_2
*I *1536:X O *D sky130_fd_sc_hd__clkbuf_8
*CAP
1 *1543:A 0
2 *1544:A 0
3 *1538:A 2.656e-05
4 *1537:A 0.000170164
5 *1540:A 0
6 *1542:A 0
7 *1541:A 0
8 *1545:A 6.63674e-05
9 *1539:A 0.00016626
10 *1546:A 0
11 *1536:X 0.000735177
12 *180:158 0.000176596
13 *180:143 0.000289354
14 *180:137 0.000733645
15 *180:133 0.000946483
16 *180:123 0.000770893
17 *180:101 0.000461274
18 *180:86 0.000502525
19 *180:79 0.000122398
20 *180:71 0.00132599
21 *180:67 0.00297012
22 *180:56 0.00240958
23 *180:54 0.000935527
24 *180:35 0.00039619
25 *180:33 0.00116599
26 *180:29 0.00274987
27 *180:27 0.00121396
28 *180:14 0.000129652
29 *180:10 0.000856574
30 *180:6 0.00156403
31 *1537:A *186:48 0.000124458
32 *1537:A *199:30 0.000100061
33 *1538:A *221:84 5.3304e-05
34 *1539:A *205:78 3.95551e-05
35 *180:6 *181:109 0.000316273
36 *180:10 *1486:A2 4.63601e-05
37 *180:10 *200:10 0.000109612
38 *180:10 *200:23 2.49424e-05
39 *180:10 *211:114 0.00139357
40 *180:10 *220:18 0.00142106
41 *180:14 *1407:B 2.64616e-05
42 *180:27 *1407:B 1.57659e-05
43 *180:27 *219:47 5.5198e-05
44 *180:27 *220:18 1.60949e-05
45 *180:29 *219:47 2.22077e-05
46 *180:29 *219:49 0.00255691
47 *180:29 *220:10 0.000361789
48 *180:29 *220:18 1.76559e-05
49 *180:33 *1561:CLK 0.000413634
50 *180:33 *185:41 0.000216383
51 *180:33 *210:14 0.000179473
52 *180:33 *210:20 0.000273494
53 *180:54 *1561:CLK 6.17437e-06
54 *180:54 *205:78 2.58995e-05
55 *180:54 *210:14 4.38068e-06
56 *180:56 *205:78 0.000334841
57 *180:67 *1580:CLK 9.84682e-05
58 *180:67 *182:71 0.000205044
59 *180:67 *186:48 0.000166465
60 *180:79 *201:89 2.95125e-05
61 *180:101 *195:16 5.58003e-05
62 *180:101 *201:72 0
63 *180:101 *202:66 5.91105e-05
64 *180:101 *202:93 0.000614203
65 *180:123 *219:49 0.000463213
66 *180:133 *1478:A 5.3304e-05
67 *180:133 *189:30 3.65917e-05
68 *180:133 *207:112 0.000185755
69 *180:133 *226:16 0.000187986
70 *180:143 *188:76 0
71 *180:143 *221:84 8.62708e-05
72 *180:158 *208:111 5.3304e-05
73 *1427:B *180:6 2.95423e-05
74 *1448:B *180:137 0.000284345
75 *1459:C *180:14 5.3304e-05
76 *1459:C *180:27 9.79925e-05
77 *1576:D *180:123 0.000222027
78 *1576:D *180:133 0.000213419
79 *1576:RESET_B *180:133 0.000400403
80 *31:14 *180:33 0.000692974
81 *31:14 *180:54 4.40271e-05
82 *33:22 *180:137 0.000114474
83 *47:130 *180:101 2.11157e-05
84 *57:14 *1539:A 0.000100069
85 *59:8 *180:137 0.000124398
86 *63:10 *180:101 0.000226829
87 *66:8 *1545:A 0.000119897
88 *67:8 *180:27 5.82853e-05
89 *73:10 *180:6 0.000657446
90 *85:6 *180:133 6.99492e-05
91 *92:14 *180:133 6.17437e-06
92 *92:18 *180:29 0.00183452
93 *92:18 *180:123 0.000454901
94 *95:101 *1538:A 1.24376e-05
95 *95:101 *180:143 1.14154e-05
96 *95:101 *180:158 0.000237265
97 *99:14 *180:101 5.3304e-05
98 *99:22 *180:71 0.000352421
99 *105:77 *180:6 5.14826e-05
100 *111:6 *180:6 9.86777e-06
101 *120:30 *1539:A 0.000102389
102 *128:18 *180:137 0.000568268
103 *128:18 *180:158 0.000231854
104 *129:93 *180:101 6.39527e-05
105 *129:143 *180:79 0.000139647
106 *129:143 *180:101 0
107 *134:14 *180:67 0
108 *134:22 *180:56 2.36182e-05
109 *134:80 *180:67 0
110 *136:12 *180:67 7.39704e-05
111 *136:24 *180:56 0.000227044
112 *137:24 *180:10 0.000102254
113 *137:24 *180:29 0.00013851
114 *139:14 *180:56 0.000365354
115 *139:14 *180:67 0.00123794
116 *139:43 *180:158 5.3304e-05
117 *141:10 *180:56 0
118 *143:12 *180:56 1.16455e-05
119 *143:12 *180:67 0.000491596
120 *143:33 *1539:A 7.79116e-05
121 *143:33 *180:54 4.69793e-05
122 *146:10 *180:137 0.00163478
123 *147:48 *180:10 0.000196325
124 *147:118 *180:137 0.000166504
125 *147:141 *180:137 0.000352066
126 *156:10 *180:56 0.00134781
127 *156:23 *1545:A 0.000229793
128 *167:28 *180:101 0
129 *175:18 *180:29 0.00011886
130 *179:140 *180:67 0.000175063
*RES
1 *1536:X *180:6 39.82 
2 *180:6 *180:10 40.4993 
3 *180:10 *180:14 15.6214 
4 *180:14 *1546:A 23 
5 *180:14 *180:27 17.3925 
6 *180:27 *180:29 35.8875 
7 *180:29 *180:33 36.5843 
8 *180:33 *180:35 15 
9 *180:35 *1539:A 41.7079 
10 *180:35 *180:54 33.6043 
11 *180:54 *180:56 18.8086 
12 *180:56 *1545:A 40.5271 
13 *180:56 *180:67 37.12 
14 *180:67 *180:71 35.155 
15 *180:71 *180:79 32.7654 
16 *180:79 *1541:A 23 
17 *180:71 *180:86 0.621429 
18 *180:86 *1542:A 23 
19 *180:86 *180:101 41.6207 
20 *180:101 *1540:A 23 
21 *180:67 *1537:A 41.7079 
22 *180:29 *180:123 26.3929 
23 *180:123 *180:133 39.0936 
24 *180:133 *180:137 37.33 
25 *180:137 *180:143 16.595 
26 *180:143 *1538:A 23.6214 
27 *180:143 *180:158 33.9357 
28 *180:158 *1544:A 23 
29 *180:123 *1543:A 23 
*END

*D_NET *181 0.0388592
*CONN
*I *1549:A I *D sky130_fd_sc_hd__inv_2
*I *1550:A I *D sky130_fd_sc_hd__inv_2
*I *1554:A I *D sky130_fd_sc_hd__inv_2
*I *1548:A I *D sky130_fd_sc_hd__inv_2
*I *1553:A I *D sky130_fd_sc_hd__inv_2
*I *1555:A I *D sky130_fd_sc_hd__inv_2
*I *1552:A I *D sky130_fd_sc_hd__inv_2
*I *1557:A I *D sky130_fd_sc_hd__inv_2
*I *1551:A I *D sky130_fd_sc_hd__inv_2
*I *1556:A I *D sky130_fd_sc_hd__inv_2
*I *1547:X O *D sky130_fd_sc_hd__clkbuf_8
*CAP
1 *1549:A 0
2 *1550:A 0
3 *1554:A 0
4 *1548:A 0
5 *1553:A 0
6 *1555:A 4.11105e-05
7 *1552:A 0
8 *1557:A 0
9 *1551:A 0
10 *1556:A 5.7524e-05
11 *1547:X 4.52837e-05
12 *181:109 0.000636555
13 *181:105 0.0030023
14 *181:103 0.00355279
15 *181:101 0.0013925
16 *181:95 0.000493154
17 *181:63 0.000519063
18 *181:57 0.000815961
19 *181:51 0.000869172
20 *181:32 0.00119993
21 *181:28 0.000696885
22 *181:24 0.00390545
23 *181:22 0.0038967
24 *181:18 0.0011909
25 *181:16 0.00100962
26 *181:10 0.000810283
27 *181:8 0.000672255
28 *1555:A *1568:CLK 9.41704e-05
29 *1555:A *225:14 9.41704e-05
30 *1556:A *226:58 0.000147489
31 *181:10 *1433:A 0.000436269
32 *181:10 *185:18 0
33 *181:10 *216:24 0
34 *181:10 *221:98 0.000162254
35 *181:10 *222:74 0.000113244
36 *181:16 *216:24 1.23467e-05
37 *181:16 *221:98 0.0002203
38 *181:18 *216:24 0.000278427
39 *181:18 *216:39 0.000392497
40 *181:22 *216:39 0.000253061
41 *181:24 *1460:A 5.11621e-05
42 *181:24 *189:22 0.00064205
43 *181:51 *1411:A 0.000138745
44 *181:51 *197:10 5.50587e-05
45 *181:51 *226:58 0.000716475
46 *181:57 *197:10 0.000192942
47 *181:57 *200:84 1.54844e-05
48 *181:63 *197:10 0.00105479
49 *181:63 *200:84 0.000151699
50 *181:63 *221:10 0
51 *181:101 *1559:A 0.000221992
52 *181:105 *191:86 0
53 *181:109 *1536:A 0.000456638
54 *1411:D *181:51 9.88259e-05
55 *1460:B *181:24 0.000181838
56 *1493:B *181:18 0.000198184
57 *1518:B *181:24 9.74801e-05
58 *21:12 *181:105 3.41098e-05
59 *52:8 *181:24 0.000139969
60 *68:10 *181:103 0.000191118
61 *70:10 *181:18 0.000593798
62 *70:10 *181:22 0.000126936
63 *72:10 *181:32 0.000466378
64 *75:8 *181:28 0.000185755
65 *75:8 *181:32 6.16439e-05
66 *79:8 *181:101 0.000306338
67 *84:40 *181:103 0
68 *84:51 *181:103 0
69 *87:42 *181:18 0.000410351
70 *88:24 *181:24 2.69729e-05
71 *88:30 *181:24 0.000526793
72 *88:42 *181:103 0
73 *88:42 *181:105 0
74 *89:8 *181:105 5.84705e-05
75 *107:24 *181:18 0.000161352
76 *109:12 *181:24 0.000186706
77 *111:6 *181:109 8.39158e-05
78 *116:26 *181:105 0
79 *120:18 *181:32 0.000346215
80 *120:60 *181:28 0.000176541
81 *120:60 *181:32 0.000138727
82 *135:8 *181:24 5.3304e-05
83 *147:124 *181:24 0.000842171
84 *149:33 *181:16 0
85 *149:33 *181:18 0
86 *153:10 *181:103 0.0017207
87 *153:10 *181:105 6.38845e-05
88 *155:16 *181:24 1.36806e-05
89 *156:37 *181:18 2.46399e-05
90 *161:24 *181:32 0.000145581
91 *165:37 *181:32 0
92 *170:24 *181:105 0.000171906
93 *180:6 *181:109 0.000316273
*RES
1 *1547:X *181:8 38.6214 
2 *181:8 *181:10 13.5264 
3 *181:10 *181:16 4.55714 
4 *181:16 *181:18 22.6821 
5 *181:18 *181:22 18.3143 
6 *181:22 *181:24 60.6514 
7 *181:24 *181:28 17.61 
8 *181:28 *181:32 28.8786 
9 *181:32 *1556:A 24.5743 
10 *181:32 *181:51 27.9464 
11 *181:51 *181:57 7.02214 
12 *181:57 *181:63 29.9764 
13 *181:63 *1551:A 23 
14 *181:57 *1557:A 38 
15 *181:51 *1552:A 38 
16 *181:28 *1555:A 39.0979 
17 *181:18 *181:95 18.9564 
18 *181:95 *181:101 19.93 
19 *181:101 *181:103 30.4293 
20 *181:103 *181:105 45.2193 
21 *181:105 *181:109 29.9143 
22 *181:109 *1553:A 23 
23 *181:103 *1548:A 38 
24 *181:95 *1554:A 23 
25 *181:16 *1550:A 38 
26 *181:10 *1549:A 38 
*END

*D_NET *182 0.0208834
*CONN
*I *1597:A I *D sky130_fd_sc_hd__clkbuf_16
*I *1596:A I *D sky130_fd_sc_hd__clkbuf_16
*I *1595:A I *D sky130_fd_sc_hd__clkbuf_16
*I *1594:A I *D sky130_fd_sc_hd__clkbuf_16
*I *1593:X O *D sky130_fd_sc_hd__clkbuf_16
*CAP
1 *1597:A 0
2 *1596:A 0.000591252
3 *1595:A 0
4 *1594:A 9.26437e-05
5 *1593:X 0.000118984
6 *182:71 0.00099471
7 *182:48 0.0024184
8 *182:39 0.00158012
9 *182:18 0.00328983
10 *182:14 0.00244951
11 *182:12 0.000118984
12 *1594:A *224:10 2.34061e-05
13 *1596:A *221:84 0.000682062
14 *1596:A *222:24 0.000177576
15 *182:18 *223:31 0.000104152
16 *182:39 *206:40 3.54713e-05
17 *182:39 *227:69 0.000268284
18 *182:48 *223:31 2.06875e-05
19 *182:48 *225:67 0.000129601
20 *182:71 *221:66 0.0003939
21 *182:71 *221:84 0.000228095
22 *1583:RESET_B *182:39 0.000123211
23 *43:26 *182:39 0
24 *44:26 *182:18 0
25 *47:64 *182:12 2.26497e-05
26 *54:18 *1596:A 4.82498e-05
27 *54:18 *182:71 0.000323003
28 *103:35 *1596:A 9.83566e-06
29 *106:10 *1594:A 4.72559e-05
30 *106:41 *182:18 0.000417473
31 *106:41 *182:48 0.00166562
32 *125:12 *182:12 2.26497e-05
33 *128:18 *182:18 0
34 *129:16 *182:39 0.000200413
35 *142:22 *182:12 1.93512e-05
36 *143:12 *182:71 0.000205044
37 *166:36 *1594:A 4.02281e-06
38 *166:36 *182:18 0.00193176
39 *166:36 *182:39 2.35702e-05
40 *166:36 *182:48 0.00184875
41 *179:75 *1596:A 4.77911e-05
42 *180:67 *182:71 0.000205044
*RES
1 *1593:X *182:12 46.5059 
2 *182:12 *182:14 8 
3 *182:14 *182:18 13.3872 
4 *182:18 *1594:A 46.7721 
5 *182:18 *182:39 28.6327 
6 *182:39 *1595:A 23 
7 *182:14 *182:48 12.6256 
8 *182:48 *1596:A 48.0601 
9 *182:48 *182:71 28.4274 
10 *182:71 *1597:A 23 
*END

*D_NET *183 0.0267865
*CONN
*I *1573:CLK I *D sky130_fd_sc_hd__dfrtp_1
*I *1591:CLK I *D sky130_fd_sc_hd__dfrtp_4
*I *1598:A I *D sky130_fd_sc_hd__clkinv_2
*I *1569:CLK I *D sky130_fd_sc_hd__dfrtp_2
*I *1571:CLK I *D sky130_fd_sc_hd__dfrtp_4
*I *1589:CLK I *D sky130_fd_sc_hd__dfrtp_4
*I *1582:CLK I *D sky130_fd_sc_hd__dfrtp_1
*I *1570:CLK I *D sky130_fd_sc_hd__dfrtp_4
*I *1578:CLK I *D sky130_fd_sc_hd__dfrtp_4
*I *1594:X O *D sky130_fd_sc_hd__clkbuf_16
*CAP
1 *1573:CLK 0
2 *1591:CLK 0.000471684
3 *1598:A 0
4 *1569:CLK 0
5 *1571:CLK 4.94138e-05
6 *1589:CLK 0
7 *1582:CLK 0
8 *1570:CLK 0
9 *1578:CLK 0
10 *1594:X 0.000143664
11 *183:103 0.000579515
12 *183:96 0.000363866
13 *183:83 0.00226623
14 *183:64 0.00334986
15 *183:39 0.00123789
16 *183:28 0.000602631
17 *183:22 0.0023128
18 *183:16 0.000859398
19 *183:10 0.000724775
20 *183:8 0.00157752
21 *183:6 0.000605351
22 *1591:CLK *210:32 0.000224414
23 *183:6 *190:18 0.000160534
24 *183:16 *201:14 0.000881337
25 *183:16 *217:29 0.000872029
26 *183:22 *201:14 0.000965796
27 *183:22 *210:48 5.83905e-05
28 *183:22 *217:29 0.000783853
29 *183:28 *207:44 0.000206203
30 *183:28 *209:14 0
31 *183:28 *210:48 6.35755e-05
32 *183:39 *201:12 0.000149629
33 *183:39 *208:48 5.3304e-05
34 *183:64 *188:20 0.000131538
35 *183:64 *213:61 0
36 *183:64 *213:77 7.60871e-06
37 *183:96 *1515:A 6.43792e-05
38 *183:96 *190:31 0.000154173
39 *1417:A1 *183:83 2.02529e-05
40 *1498:A1 *183:16 0.000118899
41 *1526:A *183:83 1.06875e-05
42 *1569:RESET_B *183:83 0.00151945
43 *1570:RESET_B *183:39 1.26547e-05
44 *1571:RESET_B *1571:CLK 0.000100061
45 *1573:RESET_B *1591:CLK 0.000129544
46 *1578:D *183:28 8.1796e-05
47 *1589:RESET_B *183:6 0.000336907
48 *1589:RESET_B *183:8 0.00035099
49 *1591:D *1591:CLK 0.000369855
50 *1591:D *183:96 0.000111634
51 *1591:D *183:103 9.87428e-05
52 *22:20 *183:64 0.00127548
53 *22:20 *183:83 1.00084e-05
54 *23:16 *183:83 0.000205422
55 *24:14 *1591:CLK 2.95423e-05
56 *46:26 *183:83 4.04435e-05
57 *74:22 *183:16 0.000100831
58 *79:14 *183:8 1.23236e-05
59 *79:14 *183:10 0.000200965
60 *79:14 *183:16 2.57686e-05
61 *81:18 *183:10 6.93748e-05
62 *81:18 *183:16 0.000137356
63 *83:12 *183:96 9.21295e-05
64 *97:22 *1571:CLK 5.40241e-05
65 *105:92 *183:28 4.22436e-05
66 *110:26 *183:22 2.24048e-05
67 *110:26 *183:28 5.39829e-05
68 *112:8 *183:22 0.000177376
69 *112:8 *183:28 0.000297323
70 *133:28 *183:64 8.2767e-05
71 *133:28 *183:83 9.50171e-05
72 *163:16 *1591:CLK 1.21972e-05
73 *163:16 *183:96 0.000180307
74 *163:16 *183:103 0.000168934
75 *163:26 *183:64 0
76 *163:50 *1591:CLK 0.000158246
77 *175:18 *183:96 5.91754e-05
78 *176:22 *183:83 0
*RES
1 *1594:X *183:6 26.9564 
2 *183:6 *183:8 4.43286 
3 *183:8 *183:10 6.815 
4 *183:10 *183:16 29.7693 
5 *183:16 *183:22 15.7014 
6 *183:22 *183:28 29.355 
7 *183:28 *1578:CLK 23 
8 *183:22 *183:39 31.7164 
9 *183:39 *1570:CLK 23 
10 *183:16 *1582:CLK 38 
11 *183:10 *1589:CLK 23 
12 *183:8 *183:64 35.9836 
13 *183:64 *1571:CLK 39.595 
14 *183:64 *183:83 46.9 
15 *183:83 *1569:CLK 23 
16 *183:6 *183:96 36.9186 
17 *183:96 *1598:A 23 
18 *183:96 *183:103 3.48 
19 *183:103 *1591:CLK 34.1236 
20 *183:103 *1573:CLK 23 
*END

*D_NET *184 0.0181138
*CONN
*I *1564:CLK I *D sky130_fd_sc_hd__dfrtp_4
*I *1572:CLK I *D sky130_fd_sc_hd__dfrtp_2
*I *1577:CLK I *D sky130_fd_sc_hd__dfrtp_4
*I *1583:CLK I *D sky130_fd_sc_hd__dfrtp_1
*I *1566:CLK I *D sky130_fd_sc_hd__dfrtp_2
*I *1574:CLK I *D sky130_fd_sc_hd__dfrtp_1
*I *1562:CLK I *D sky130_fd_sc_hd__dfrtp_4
*I *1567:CLK I *D sky130_fd_sc_hd__dfrtp_2
*I *1585:CLK I *D sky130_fd_sc_hd__dfrtp_4
*I *1560:CLK I *D sky130_fd_sc_hd__dfrtp_4
*I *1586:CLK I *D sky130_fd_sc_hd__dfrtp_1
*I *1595:X O *D sky130_fd_sc_hd__clkbuf_16
*CAP
1 *1564:CLK 0
2 *1572:CLK 0.00023131
3 *1577:CLK 0
4 *1583:CLK 0
5 *1566:CLK 0
6 *1574:CLK 0.000284771
7 *1562:CLK 0.000244316
8 *1567:CLK 0.000201486
9 *1585:CLK 2.92174e-05
10 *1560:CLK 0
11 *1586:CLK 0
12 *1595:X 0
13 *184:112 0.000355932
14 *184:108 0.000579707
15 *184:92 0.000318618
16 *184:84 0.000655791
17 *184:34 0.00069489
18 *184:28 0.000971881
19 *184:24 0.000831616
20 *184:14 0.000874641
21 *184:12 0.000476728
22 *184:10 0.000498556
23 *184:8 0.000653997
24 *184:6 0.000642789
25 *1562:CLK *194:26 3.3577e-05
26 *1567:CLK *187:81 0.000237246
27 *1572:CLK *201:46 0
28 *1574:CLK *205:8 0.000563675
29 *1585:CLK *217:10 9.67842e-05
30 *184:8 *194:16 0.000461292
31 *184:10 *194:16 0.000393419
32 *184:12 *194:16 0.000148525
33 *184:12 *194:26 2.97932e-05
34 *184:14 *194:26 4.54033e-05
35 *184:14 *217:59 0
36 *184:24 *217:10 0.000215671
37 *184:24 *217:12 0.00014196
38 *184:24 *217:59 7.14995e-05
39 *184:92 *206:40 0.000186842
40 *184:108 *194:16 0.00102734
41 *184:112 *201:46 0
42 *1431:A *184:84 0.000141355
43 *1501:C *184:84 2.65157e-05
44 *1562:D *1562:CLK 6.48467e-05
45 *1562:RESET_B *184:8 0.000468407
46 *1562:RESET_B *184:10 0.000402642
47 *1562:RESET_B *184:12 0.000216721
48 *1562:RESET_B *184:14 6.48049e-05
49 *1562:RESET_B *184:108 0.00103565
50 *1574:D *1574:CLK 1.32314e-05
51 *1585:D *1585:CLK 6.17437e-06
52 *1585:RESET_B *1585:CLK 2.80512e-05
53 *1585:RESET_B *184:24 0.000143059
54 *20:10 *184:28 0.000104744
55 *20:10 *184:34 1.85495e-05
56 *23:34 *1572:CLK 7.14493e-05
57 *35:26 *184:84 0.00068541
58 *37:10 *184:28 3.31127e-05
59 *41:14 *184:108 7.25914e-05
60 *67:12 *184:92 9.56315e-05
61 *93:55 *1567:CLK 0.000691502
62 *104:45 *1567:CLK 0.000123934
63 *105:121 *184:108 0.000135037
64 *105:127 *184:84 2.64616e-05
65 *105:140 *184:112 6.7177e-06
66 *111:6 *184:34 0.000747098
67 *115:30 *184:14 0
68 *115:30 *184:24 0
69 *115:36 *184:24 0
70 *165:35 *184:108 9.65021e-05
71 *165:37 *1572:CLK 9.74416e-05
72 *165:37 *184:112 9.98995e-05
73 *171:12 *184:92 8.91405e-05
74 *174:14 *184:24 0.000107852
*RES
1 *1595:X *184:6 38 
2 *184:6 *184:8 6.48357 
3 *184:8 *184:10 5.42714 
4 *184:10 *184:12 2.96214 
5 *184:12 *184:14 2.96214 
6 *184:14 *184:24 28.3193 
7 *184:24 *184:28 20.7793 
8 *184:28 *184:34 32.4 
9 *184:34 *1586:CLK 23 
10 *184:28 *1560:CLK 38 
11 *184:24 *1585:CLK 24.0979 
12 *184:14 *1567:CLK 45.7679 
13 *184:12 *1562:CLK 41.9564 
14 *184:10 *1574:CLK 44.3386 
15 *184:8 *184:84 22.7679 
16 *184:84 *184:92 36.09 
17 *184:92 *1566:CLK 23 
18 *184:84 *1583:CLK 23 
19 *184:6 *184:108 31.8821 
20 *184:108 *184:112 17.9621 
21 *184:112 *1577:CLK 38 
22 *184:112 *1572:CLK 42.5364 
23 *184:108 *1564:CLK 23 
*END

*D_NET *185 0.0329288
*CONN
*I *1565:CLK I *D sky130_fd_sc_hd__dfrtp_2
*I *1581:CLK I *D sky130_fd_sc_hd__dfrtp_2
*I *1576:CLK I *D sky130_fd_sc_hd__dfrtp_4
*I *1561:CLK I *D sky130_fd_sc_hd__dfrtp_4
*I *1599:A I *D sky130_fd_sc_hd__clkinvlp_4
*I *1587:CLK I *D sky130_fd_sc_hd__dfrtp_4
*I *1588:CLK I *D sky130_fd_sc_hd__dfrtp_4
*I *1596:X O *D sky130_fd_sc_hd__clkbuf_16
*CAP
1 *1565:CLK 0.000533123
2 *1581:CLK 0
3 *1576:CLK 0
4 *1561:CLK 0.000684303
5 *1599:A 0.000201089
6 *1587:CLK 0
7 *1588:CLK 0.000503989
8 *1596:X 0
9 *185:45 0.000818558
10 *185:41 0.00239949
11 *185:35 0.00179525
12 *185:20 0.00120151
13 *185:18 0.00161964
14 *185:16 0.00193952
15 *185:12 0.00147996
16 *185:8 0.0029996
17 *185:6 0.00130639
18 *1561:CLK *190:61 0.000543023
19 *1565:CLK *213:22 0
20 *1565:CLK *216:18 8.62783e-05
21 *1565:CLK *216:22 2.64616e-05
22 *1588:CLK *191:78 3.28621e-05
23 *1599:A *1413:D 9.41704e-05
24 *1599:A *227:26 5.53696e-05
25 *185:8 *188:111 0.000111852
26 *185:8 *188:119 0
27 *185:8 *224:16 0.00117097
28 *185:12 *199:24 0.000714003
29 *185:12 *213:22 0.000446275
30 *185:18 *187:20 8.33545e-05
31 *185:18 *217:31 0.00139325
32 *185:18 *227:34 0.00019746
33 *185:35 *191:78 2.72475e-06
34 *185:41 *190:61 0.000283211
35 *1504:A *185:12 5.3304e-05
36 *1504:B *185:12 5.3304e-05
37 *1581:D *185:18 0.000194461
38 *1584:D *1565:CLK 5.40377e-05
39 *11:13 *185:16 0
40 *11:13 *185:18 0.000131293
41 *11:23 *185:45 2.26497e-05
42 *31:14 *1561:CLK 0.000691273
43 *47:79 *185:45 2.38193e-05
44 *59:8 *185:35 0.000910781
45 *59:8 *185:41 0.000382955
46 *65:20 *185:45 0.000138219
47 *86:31 *185:8 0.000108216
48 *93:8 *185:18 0.000217326
49 *95:82 *185:35 0.000368705
50 *95:82 *185:41 0.000176865
51 *96:10 *185:18 0
52 *97:44 *185:18 0
53 *97:53 *185:18 0
54 *97:76 *185:16 0
55 *97:76 *185:18 0
56 *102:16 *185:8 0
57 *103:33 *1599:A 0.00023134
58 *103:33 *185:45 0.00135549
59 *109:32 *1599:A 0
60 *110:16 *185:35 0.000144568
61 *110:26 *185:35 0.000161888
62 *123:12 *1565:CLK 0
63 *123:12 *185:8 0
64 *125:18 *185:18 0.000113398
65 *125:18 *185:35 0.000302027
66 *134:26 *185:45 0.000129504
67 *134:40 *185:45 0.000787261
68 *149:33 *185:18 0
69 *155:49 *185:8 0.00136081
70 *155:57 *185:12 0.000482838
71 *162:24 *185:12 0.000283673
72 *166:36 *185:8 0.000185018
73 *179:24 *185:41 0.000503873
74 *180:33 *1561:CLK 0.000413634
75 *180:33 *185:41 0.000216383
76 *180:54 *1561:CLK 6.17437e-06
77 *181:10 *185:18 0
*RES
1 *1596:X *185:6 38 
2 *185:6 *185:8 32.5421 
3 *185:8 *185:12 41.825 
4 *185:12 *185:16 20.075 
5 *185:16 *185:18 36.0636 
6 *185:18 *185:20 15 
7 *185:20 *1588:CLK 29.1107 
8 *185:20 *185:35 31.4264 
9 *185:35 *185:41 37.7236 
10 *185:41 *185:45 34.5129 
11 *185:45 *1587:CLK 38 
12 *185:45 *1599:A 42.4121 
13 *185:41 *1561:CLK 39.82 
14 *185:35 *1576:CLK 38 
15 *185:16 *1581:CLK 38 
16 *185:8 *1565:CLK 45.4157 
*END

*D_NET *186 0.0237053
*CONN
*I *1600:A I *D sky130_fd_sc_hd__bufinv_16
*I *1568:CLK I *D sky130_fd_sc_hd__dfrtp_4
*I *1579:CLK I *D sky130_fd_sc_hd__dfrtp_2
*I *1563:CLK I *D sky130_fd_sc_hd__dfrtp_1
*I *1575:CLK I *D sky130_fd_sc_hd__dfrtp_2
*I *1584:CLK I *D sky130_fd_sc_hd__dfrtp_4
*I *1580:CLK I *D sky130_fd_sc_hd__dfrtp_2
*I *1590:CLK I *D sky130_fd_sc_hd__dfrtp_4
*I *1597:X O *D sky130_fd_sc_hd__clkbuf_16
*CAP
1 *1600:A 0.000810616
2 *1568:CLK 0.000184377
3 *1579:CLK 0
4 *1563:CLK 0
5 *1575:CLK 0.000298806
6 *1584:CLK 0
7 *1580:CLK 0.000118736
8 *1590:CLK 8.27549e-05
9 *1597:X 0.000204864
10 *186:80 0.000647873
11 *186:74 0.000960182
12 *186:72 0.00105337
13 *186:70 0.0016377
14 *186:48 0.000726585
15 *186:27 0.00109242
16 *186:21 0.000958712
17 *186:10 0.000934194
18 *186:6 0.000913899
19 *1568:CLK *225:10 1.21972e-05
20 *1568:CLK *225:14 0.000150891
21 *1575:CLK *191:8 2.46345e-05
22 *1575:CLK *191:24 9.63642e-05
23 *1575:CLK *191:41 5.3304e-05
24 *1575:CLK *200:106 0
25 *1575:CLK *206:6 0.000212328
26 *1575:CLK *206:10 0
27 *1580:CLK *202:72 0.000135115
28 *186:10 *1519:A1 7.92051e-05
29 *186:10 *187:138 0.000790479
30 *186:10 *191:24 0.000100796
31 *186:10 *200:123 2.58781e-05
32 *186:21 *1519:A1 0.000214175
33 *186:21 *206:10 0
34 *186:27 *201:76 0.000312888
35 *186:48 *203:82 7.75329e-06
36 *186:70 *187:138 0.000244109
37 *186:72 *191:24 0.00015631
38 *186:74 *191:24 0.000168471
39 *186:80 *203:14 0.000224956
40 *1499:B *186:80 0.00064404
41 *1519:B1 *186:27 0.000992471
42 *1537:A *186:48 0.000124458
43 *1555:A *1568:CLK 9.41704e-05
44 *1568:D *1568:CLK 0.00042728
45 *1584:D *186:48 9.7979e-05
46 *1590:D *1590:CLK 7.46513e-05
47 *23:34 *186:80 0.00145362
48 *30:10 *186:70 0.000198835
49 *30:10 *186:72 0.000399217
50 *40:12 *186:80 0.000270198
51 *42:10 *186:48 0
52 *43:8 *186:48 0.000276834
53 *50:12 *186:10 9.87715e-05
54 *50:12 *186:21 3.49736e-05
55 *50:12 *186:72 0
56 *50:16 *186:72 0.000220484
57 *50:16 *186:74 0.000857266
58 *50:16 *186:80 0.000392279
59 *51:10 *186:70 0
60 *51:10 *186:72 0
61 *98:39 *186:27 0.000432507
62 *105:140 *186:72 0.000243596
63 *105:140 *186:74 0.00086648
64 *105:140 *186:80 0.000392279
65 *129:101 *1575:CLK 0.000162031
66 *134:80 *1580:CLK 3.44129e-05
67 *134:80 *186:48 7.84892e-05
68 *136:12 *186:48 7.1459e-05
69 *155:74 *1600:A 4.27272e-05
70 *175:89 *1575:CLK 9.28078e-06
71 *175:89 *186:21 0.000159447
72 *179:148 *186:10 0.000655146
73 *180:67 *1580:CLK 9.84682e-05
74 *180:67 *186:48 0.000166465
*RES
1 *1597:X *186:6 25.5271 
2 *186:6 *186:10 29.5829 
3 *186:10 *1590:CLK 39.5743 
4 *186:10 *186:21 8.59643 
5 *186:21 *186:27 41.1029 
6 *186:27 *1580:CLK 40.9621 
7 *186:27 *186:48 31.0329 
8 *186:48 *1584:CLK 23 
9 *186:21 *1575:CLK 45.5193 
10 *186:6 *186:70 21.525 
11 *186:70 *186:72 14.2307 
12 *186:72 *186:74 11.7657 
13 *186:74 *186:80 36.7707 
14 *186:80 *1563:CLK 23 
15 *186:74 *1579:CLK 38 
16 *186:72 *1568:CLK 42.9093 
17 *186:70 *1600:A 49.5793 
*END

*D_NET *187 0.0461433
*CONN
*I *1519:A1 I *D sky130_fd_sc_hd__a21oi_1
*I *1397:A I *D sky130_fd_sc_hd__nor2_2
*I *1403:B1 I *D sky130_fd_sc_hd__a21oi_1
*I *1516:B I *D sky130_fd_sc_hd__and3b_1
*I *1404:A2 I *D sky130_fd_sc_hd__a21oi_1
*I *1520:C I *D sky130_fd_sc_hd__or3_1
*I *1392:C I *D sky130_fd_sc_hd__and3_2
*I *1401:A2 I *D sky130_fd_sc_hd__a21oi_1
*I *1588:Q O *D sky130_fd_sc_hd__dfrtp_4
*CAP
1 *1519:A1 0.000446615
2 *1397:A 0.000343913
3 *1403:B1 0.000271036
4 *1516:B 0.000305048
5 *1404:A2 0.000114207
6 *1520:C 0
7 *1392:C 0
8 *1401:A2 0
9 *1588:Q 0.000350063
10 *187:138 0.00128578
11 *187:130 0.00273586
12 *187:117 0.00319341
13 *187:81 0.00140665
14 *187:69 0.00202335
15 *187:61 0.00153535
16 *187:50 0.00096474
17 *187:46 0.000998558
18 *187:34 0.00171821
19 *187:22 0.00142474
20 *187:20 0.00081663
21 *187:14 0.00224787
22 *187:8 0.00133929
23 *1397:A *1458:A 0.000140927
24 *1397:A *200:123 2.02872e-05
25 *1397:A *223:43 0.000179473
26 *1403:B1 *212:30 0.000398978
27 *1404:A2 *1404:A1 0.000258229
28 *187:8 *191:78 9.49385e-05
29 *187:8 *212:52 0.00023353
30 *187:14 *212:38 1.9664e-05
31 *187:14 *227:34 5.56279e-05
32 *187:20 *217:31 0.00013485
33 *187:46 *201:18 0.000396204
34 *187:46 *207:20 0.000540116
35 *187:46 *213:61 0.000397338
36 *187:46 *213:77 5.31444e-05
37 *187:50 *227:112 0.000158796
38 *187:61 *1404:A1 0.000135037
39 *187:61 *214:31 0.000311529
40 *187:61 *227:59 0.000803877
41 *187:69 *1441:A 0.000269396
42 *187:69 *204:10 0.000105122
43 *187:69 *210:32 4.26455e-05
44 *187:69 *218:18 0.000170904
45 *187:69 *218:22 0
46 *187:69 *223:31 0.000703274
47 *187:81 *190:109 9.28078e-06
48 *187:81 *209:58 0
49 *187:117 *191:72 0
50 *187:117 *227:34 0.000596935
51 *187:130 *207:143 0.000460713
52 *187:130 *212:24 3.28708e-05
53 *187:130 *212:30 0.000644998
54 *187:138 *191:24 0.000107406
55 *1397:B *1397:A 0.000518755
56 *1423:B *187:22 5.3304e-05
57 *1454:B *1516:B 1.41129e-05
58 *1454:B *187:22 0.000261206
59 *1458:C *1397:A 6.96685e-05
60 *1507:B *187:14 0.000108592
61 *1567:CLK *187:81 0.000237246
62 *1567:RESET_B *187:81 5.68937e-05
63 *1588:RESET_B *187:8 2.33744e-05
64 *30:10 *1519:A1 0.00020461
65 *30:10 *187:138 0.000335135
66 *46:18 *187:34 9.64377e-05
67 *46:18 *187:46 7.00178e-05
68 *47:20 *187:69 0.000171593
69 *51:10 *187:138 4.95487e-06
70 *55:12 *187:69 0.000312772
71 *59:8 *187:34 0.000783054
72 *76:34 *187:14 6.2088e-05
73 *87:34 *1403:B1 0.000682229
74 *87:34 *187:130 0.00179635
75 *88:6 *1397:A 3.56364e-05
76 *88:30 *187:20 0.000598375
77 *92:14 *187:117 0.00012835
78 *92:22 *1404:A2 0.000181801
79 *92:22 *187:61 0.00139434
80 *93:55 *187:81 0.000265431
81 *95:70 *187:46 0.000138718
82 *97:44 *187:20 0.000168149
83 *105:12 *187:20 3.33144e-05
84 *105:29 *187:20 0.000958699
85 *120:40 *187:81 0.000209668
86 *125:18 *187:20 0.000137907
87 *131:12 *187:22 1.59094e-05
88 *133:28 *187:50 0.000289415
89 *134:6 *1397:A 0.00051202
90 *146:10 *187:34 2.82108e-05
91 *147:99 *187:34 0.000633913
92 *147:107 *1516:B 0.000311534
93 *156:37 *187:8 0.000121147
94 *162:24 *187:20 0.000183334
95 *165:10 *1404:A2 7.40718e-05
96 *165:10 *187:61 0.000386035
97 *165:37 *1519:A1 9.65713e-05
98 *167:22 *187:34 1.75131e-05
99 *170:12 *187:14 0.000163256
100 *170:73 *187:14 0.000221
101 *175:18 *187:50 0
102 *175:89 *1519:A1 0.000161613
103 *176:22 *187:46 0.000202254
104 *179:148 *187:130 9.84794e-05
105 *179:148 *187:138 0.000105479
106 *185:18 *187:20 8.33545e-05
107 *186:10 *1519:A1 7.92051e-05
108 *186:10 *187:138 0.000790479
109 *186:21 *1519:A1 0.000214175
110 *186:70 *187:138 0.000244109
*RES
1 *1588:Q *187:8 45.2914 
2 *187:8 *187:14 29.2721 
3 *187:14 *187:20 48.4564 
4 *187:20 *187:22 3.95643 
5 *187:22 *187:34 42.6806 
6 *187:34 *187:46 48.1975 
7 *187:46 *187:50 19.0186 
8 *187:50 *1401:A2 23 
9 *187:50 *187:61 21.2736 
10 *187:61 *187:69 47.0064 
11 *187:69 *187:81 49.8029 
12 *187:81 *1392:C 23 
13 *187:69 *1520:C 23 
14 *187:61 *1404:A2 26.9771 
15 *187:22 *1516:B 27.4536 
16 *187:14 *187:117 40.4814 
17 *187:117 *1403:B1 30.7679 
18 *187:117 *187:130 45.095 
19 *187:130 *187:138 31.0536 
20 *187:138 *1397:A 48.7921 
21 *187:138 *1519:A1 49.0614 
*END

*D_NET *188 0.0427278
*CONN
*I *1392:B I *D sky130_fd_sc_hd__and3_2
*I *1401:B1 I *D sky130_fd_sc_hd__a21oi_1
*I *1522:B I *D sky130_fd_sc_hd__or3_1
*I *1395:B I *D sky130_fd_sc_hd__nor2_2
*I *1524:A1 I *D sky130_fd_sc_hd__a21boi_2
*I *1516:A_N I *D sky130_fd_sc_hd__and3b_1
*I *1517:A2 I *D sky130_fd_sc_hd__a2111o_1
*I *1589:Q O *D sky130_fd_sc_hd__dfrtp_4
*CAP
1 *1392:B 0
2 *1401:B1 3.54693e-05
3 *1522:B 0.000298826
4 *1395:B 0
5 *1524:A1 0.00118494
6 *1516:A_N 0.000258603
7 *1517:A2 0
8 *1589:Q 0
9 *188:160 0.00273371
10 *188:158 0.00336093
11 *188:148 0.000788801
12 *188:119 0.000340547
13 *188:113 0.000841398
14 *188:111 0.000321148
15 *188:101 0.001677
16 *188:95 0.00182293
17 *188:76 0.00156789
18 *188:70 0.00135973
19 *188:45 0.00194659
20 *188:38 0.000688885
21 *188:32 0.0021882
22 *188:20 0.00121085
23 *188:14 0.0004787
24 *188:4 0.000518048
25 *1401:B1 *214:31 5.3304e-05
26 *1524:A1 *199:8 5.68958e-05
27 *188:32 *214:16 0.000481185
28 *188:32 *214:31 4.35738e-05
29 *188:32 *215:29 2.17918e-05
30 *188:38 *1517:A1 0.000178517
31 *188:38 *189:42 8.34394e-05
32 *188:38 *196:31 0.000180224
33 *188:76 *221:84 1.37232e-05
34 *188:76 *221:94 6.17437e-06
35 *188:95 *191:72 0
36 *188:95 *221:84 0.000195544
37 *188:95 *221:94 6.39489e-06
38 *188:95 *226:16 5.33831e-05
39 *188:101 *212:14 0.000447924
40 *188:101 *221:84 0.000304638
41 *188:111 *225:75 0.000175903
42 *188:148 *1515:A 0.000275472
43 *188:158 *213:77 3.99784e-05
44 *1442:C *188:101 0.000204655
45 *1454:B *1516:A_N 0.000383805
46 *1500:B *188:20 2.40392e-05
47 *1517:C1 *188:38 8.26807e-05
48 *1524:B1_N *1524:A1 0.000511176
49 *1589:RESET_B *188:14 9.41704e-05
50 *22:16 *188:14 3.05299e-05
51 *33:8 *188:32 0.000461916
52 *47:12 *188:158 0
53 *47:174 *188:158 0
54 *48:12 *188:32 0.00104699
55 *48:12 *188:45 0.000171018
56 *79:14 *188:14 9.62958e-05
57 *86:31 *188:119 5.64582e-05
58 *87:62 *188:119 7.29755e-05
59 *88:34 *188:38 0.000845486
60 *88:40 *188:38 3.00358e-05
61 *89:12 *188:160 0.000738107
62 *93:49 *188:148 0.000108877
63 *93:55 *188:160 0.00139045
64 *95:76 *188:45 0.00010904
65 *95:82 *188:45 0.000231631
66 *95:82 *188:70 0.00176793
67 *95:101 *188:76 0
68 *95:121 *188:158 0.000641006
69 *97:8 *188:32 0.000191503
70 *97:44 *188:32 8.72173e-05
71 *97:44 *188:45 0.000976927
72 *97:44 *188:70 0.00176184
73 *97:65 *188:95 0.000178517
74 *97:65 *188:101 0.000268424
75 *102:16 *188:119 0.000263985
76 *117:6 *1524:A1 0.00026523
77 *122:32 *188:101 1.6298e-05
78 *123:8 *188:111 0.000178235
79 *124:14 *188:101 7.71928e-05
80 *127:12 *188:70 5.46745e-05
81 *133:28 *188:14 0
82 *133:28 *188:158 9.57021e-05
83 *139:33 *1522:B 0.000177271
84 *139:33 *188:113 0.000115
85 *147:16 *188:32 9.75463e-05
86 *147:22 *188:32 0.000161121
87 *151:14 *1524:A1 5.50049e-05
88 *151:14 *188:95 0.000467196
89 *155:49 *188:111 0.000114083
90 *162:24 *188:70 0.00022506
91 *163:16 *188:14 0.000353638
92 *163:26 *188:20 9.5876e-06
93 *166:36 *188:119 0.000175222
94 *170:47 *188:160 0.000141052
95 *175:8 *188:148 0.000233367
96 *175:18 *188:14 0.000295692
97 *175:18 *188:148 0.000107232
98 *180:143 *188:76 0
99 *183:64 *188:20 0.000131538
100 *185:8 *188:111 0.000111852
101 *185:8 *188:119 0
*RES
1 *1589:Q *188:4 23 
2 *188:4 *188:14 39.0729 
3 *188:14 *188:20 31.9057 
4 *188:20 *188:32 38.2414 
5 *188:32 *188:38 28.5057 
6 *188:38 *1517:A2 23 
7 *188:32 *188:45 13.5264 
8 *188:45 *1516:A_N 42.4329 
9 *188:45 *188:70 41.352 
10 *188:70 *188:76 17.175 
11 *188:76 *1524:A1 45.1021 
12 *188:76 *188:95 36.9393 
13 *188:95 *188:101 38.4279 
14 *188:101 *188:111 48.6043 
15 *188:111 *188:113 2.52714 
16 *188:113 *188:119 37.8921 
17 *188:119 *1395:B 23 
18 *188:113 *1522:B 26.9564 
19 *188:20 *1401:B1 23.6214 
20 *188:4 *188:148 35.0543 
21 *188:148 *188:158 43.5886 
22 *188:158 *188:160 38.7357 
23 *188:160 *1392:B 23 
*END

*D_NET *189 0.0471483
*CONN
*I *1393:A I *D sky130_fd_sc_hd__nand2_1
*I *1515:B I *D sky130_fd_sc_hd__nor2_2
*I *1520:B I *D sky130_fd_sc_hd__or3_1
*I *1396:A I *D sky130_fd_sc_hd__nand2_2
*I *1398:B2 I *D sky130_fd_sc_hd__o2bb2a_1
*I *1517:A1 I *D sky130_fd_sc_hd__a2111o_1
*I *1590:Q O *D sky130_fd_sc_hd__dfrtp_4
*CAP
1 *1393:A 4.01155e-05
2 *1515:B 0
3 *1520:B 0.000431392
4 *1396:A 0
5 *1398:B2 0
6 *1517:A1 0.000154072
7 *1590:Q 0.000125421
8 *189:88 0.000877376
9 *189:80 0.00206262
10 *189:72 0.00160441
11 *189:63 0.0010214
12 *189:53 0.0024556
13 *189:42 0.000819054
14 *189:38 0.00115073
15 *189:32 0.00113299
16 *189:30 0.00389943
17 *189:28 0.00393553
18 *189:22 0.000568096
19 *189:14 0.00178899
20 *189:8 0.0014059
21 *189:14 *200:100 9.17507e-05
22 *189:14 *201:61 0
23 *189:14 *201:72 0
24 *189:14 *202:47 0.000127194
25 *189:14 *202:49 0.00109027
26 *189:14 *202:66 0.000125524
27 *189:14 *221:66 0.000760249
28 *189:28 *206:10 0.000136486
29 *189:30 *194:12 0.000613463
30 *189:38 *196:8 1.0092e-05
31 *189:38 *207:12 2.47015e-05
32 *189:38 *226:8 0.000144868
33 *189:63 *227:99 0.000407658
34 *189:72 *215:12 0.000442442
35 *189:80 *210:36 0.000438509
36 *189:80 *215:12 0.00202836
37 *189:88 *210:36 0.00136708
38 *1432:A *189:22 0.000233635
39 *1590:RESET_B *189:8 0.000181801
40 *25:10 *189:22 0.000295605
41 *47:20 *1520:B 0.000566678
42 *48:14 *189:72 8.48218e-05
43 *48:14 *189:80 0.00202005
44 *52:8 *189:22 0.000121723
45 *55:8 *189:63 0.000115636
46 *56:24 *189:14 0
47 *56:24 *189:22 0.000293314
48 *58:20 *189:38 0.000106332
49 *58:20 *189:53 0.000384015
50 *58:20 *189:63 0.000115972
51 *73:10 *189:88 0.000196838
52 *76:34 *189:38 0.000937304
53 *80:18 *189:38 0.000342808
54 *84:26 *189:63 4.72313e-05
55 *84:44 *189:38 0.000247094
56 *85:6 *189:30 3.99538e-05
57 *85:6 *189:38 2.45549e-06
58 *87:8 *189:88 5.5792e-05
59 *92:14 *189:30 0.000828145
60 *100:16 *189:30 0.00105526
61 *115:6 *189:22 0.000107226
62 *119:10 *189:80 0.000447723
63 *119:10 *189:88 0.00159748
64 *129:66 *189:14 2.093e-05
65 *144:10 *189:28 0.000138727
66 *170:12 *189:53 0.000209849
67 *170:14 *189:53 0.000773392
68 *170:14 *189:63 0.000601755
69 *170:24 *189:63 0.000293776
70 *179:28 *189:38 9.99325e-05
71 *179:36 *189:38 0.000302165
72 *179:36 *189:53 0.00175668
73 *179:36 *189:63 0.000248151
74 *179:156 *189:22 5.56356e-05
75 *180:133 *189:30 3.65917e-05
76 *181:24 *189:22 0.00064205
77 *188:38 *1517:A1 0.000178517
78 *188:38 *189:42 8.34394e-05
*RES
1 *1590:Q *189:8 40.0507 
2 *189:8 *189:14 44.9114 
3 *189:14 *189:22 44.1686 
4 *189:22 *189:28 31.9057 
5 *189:28 *189:30 49.6936 
6 *189:30 *189:32 0.497143 
7 *189:32 *189:38 40.8514 
8 *189:38 *189:42 16.0979 
9 *189:42 *1517:A1 25.0507 
10 *189:42 *189:53 38.3864 
11 *189:53 *189:63 37.5371 
12 *189:63 *1398:B2 23 
13 *189:53 *189:72 29.4379 
14 *189:72 *189:80 44.5179 
15 *189:80 *189:88 41.4314 
16 *189:88 *1396:A 23 
17 *189:80 *1520:B 44.3386 
18 *189:72 *1515:B 23 
19 *189:32 *1393:A 23.8493 
*END

*D_NET *190 0.033947
*CONN
*I *1520:A I *D sky130_fd_sc_hd__or3_1
*I *1522:A I *D sky130_fd_sc_hd__or3_1
*I *1395:A I *D sky130_fd_sc_hd__nor2_2
*I *1394:A I *D sky130_fd_sc_hd__xnor2_1
*I *1517:D1 I *D sky130_fd_sc_hd__a2111o_1
*I *1515:A I *D sky130_fd_sc_hd__nor2_2
*I *1591:Q O *D sky130_fd_sc_hd__dfrtp_4
*CAP
1 *1520:A 0
2 *1522:A 3.75226e-05
3 *1395:A 0
4 *1394:A 0
5 *1517:D1 0.000477226
6 *1515:A 0.000287338
7 *1591:Q 0.000118221
8 *190:109 5.18933e-05
9 *190:103 0.000641016
10 *190:75 0.000488692
11 *190:69 0.00140622
12 *190:67 0.00166435
13 *190:61 0.00242633
14 *190:41 0.0011216
15 *190:35 0.000731294
16 *190:31 0.00258861
17 *190:18 0.00261437
18 *190:14 0.0027037
19 *190:10 0.000765465
20 *1515:A *215:12 0.00066643
21 *1515:A *220:10 0.000267248
22 *190:10 *205:18 0.000109797
23 *190:31 *214:31 0.00124531
24 *190:31 *220:10 0.00152739
25 *190:35 *226:27 6.06224e-05
26 *190:41 *201:105 2.24973e-05
27 *190:41 *217:31 0.000649752
28 *190:41 *226:12 0.00028167
29 *190:41 *226:27 0.000229312
30 *190:61 *213:33 0.000113949
31 *190:67 *210:83 0
32 *190:69 *207:143 8.25782e-05
33 *190:69 *208:128 2.82105e-05
34 *190:69 *210:83 0
35 *190:69 *227:14 1.47819e-05
36 *190:75 *211:28 0.000133112
37 *190:103 *209:58 0.000388479
38 *190:109 *209:58 0
39 *1394:B *190:35 0.000191255
40 *1470:A *190:69 0
41 *1517:C1 *1517:D1 0.000721186
42 *1561:CLK *190:61 0.000543023
43 *1563:RESET_B *190:67 0.00103934
44 *1566:RESET_B *190:103 0
45 *1589:RESET_B *190:18 9.87428e-05
46 *1591:RESET_B *190:103 0.000133974
47 *30:6 *190:75 2.02872e-05
48 *44:10 *190:69 4.75766e-05
49 *55:12 *190:103 0.000233359
50 *57:14 *190:35 5.3304e-05
51 *57:20 *190:31 0.000159823
52 *57:20 *190:61 2.40336e-05
53 *66:10 *190:10 1.05984e-05
54 *76:26 *190:31 0.000139566
55 *76:30 *190:35 0.000345049
56 *76:30 *190:41 0.000982281
57 *77:16 *190:14 0.000408242
58 *77:16 *190:18 0.000546482
59 *83:12 *190:31 0.000188729
60 *85:31 *190:67 7.33681e-05
61 *85:31 *190:69 0.000179132
62 *88:30 *190:41 0.000598384
63 *89:24 *190:69 0.000141038
64 *90:8 *190:67 1.05658e-05
65 *90:8 *190:69 7.00754e-06
66 *92:18 *190:31 0.000142594
67 *92:18 *190:61 0.000131371
68 *93:49 *1515:A 0.000169247
69 *120:40 *190:109 2.38097e-05
70 *123:12 *190:69 2.50227e-05
71 *123:12 *190:75 0.00021119
72 *129:16 *190:10 0.000135329
73 *132:8 *190:75 0.000269096
74 *141:10 *190:69 0
75 *158:30 *190:75 0.000427242
76 *162:24 *190:41 0.000109432
77 *175:8 *1515:A 0.000162826
78 *175:18 *1515:A 5.92968e-06
79 *176:47 *190:69 0.000326134
80 *178:10 *190:69 0
81 *178:10 *190:75 0
82 *179:24 *190:61 1.01436e-05
83 *179:130 *190:75 9.28078e-06
84 *183:6 *190:18 0.000160534
85 *183:96 *1515:A 6.43792e-05
86 *183:96 *190:31 0.000154173
87 *185:41 *190:61 0.000283211
88 *187:81 *190:109 9.28078e-06
89 *188:148 *1515:A 0.000275472
*RES
1 *1591:Q *190:10 40.5271 
2 *190:10 *190:14 23.7207 
3 *190:14 *190:18 33.7257 
4 *190:18 *1515:A 48.9579 
5 *190:18 *190:31 27.26 
6 *190:31 *190:35 18.9564 
7 *190:35 *190:41 35.0514 
8 *190:41 *1517:D1 46.2443 
9 *190:35 *1394:A 23 
10 *190:31 *190:61 37.2679 
11 *190:61 *190:67 32.1411 
12 *190:67 *190:69 19.1607 
13 *190:69 *190:75 27.1282 
14 *190:75 *1395:A 23 
15 *190:69 *1522:A 38.9425 
16 *190:14 *190:103 41.89 
17 *190:103 *190:109 30.8493 
18 *190:109 *1520:A 23 
*END

*D_NET *191 0.058469
*CONN
*I *1525:A I *D sky130_fd_sc_hd__buf_4
*I *1559:A I *D sky130_fd_sc_hd__inv_2
*I *1536:A I *D sky130_fd_sc_hd__clkbuf_8
*I *1547:A I *D sky130_fd_sc_hd__clkbuf_8
*I *1558:A I *D sky130_fd_sc_hd__inv_2
*I *1602:X O *D sky130_fd_sc_hd__clkbuf_4
*CAP
1 *1525:A 5.16801e-05
2 *1559:A 0.000284224
3 *1536:A 0.000214508
4 *1547:A 0.000860248
5 *1558:A 0.000464857
6 *1602:X 0.000617721
7 *191:86 0.00276824
8 *191:84 0.00296201
9 *191:78 0.00198768
10 *191:72 0.00270673
11 *191:68 0.00129196
12 *191:60 0.00131188
13 *191:43 0.00357737
14 *191:41 0.0027335
15 *191:24 0.00672388
16 *191:8 0.00770446
17 *1558:A *217:59 0.000152331
18 *191:8 *200:106 0
19 *191:8 *211:49 3.20914e-05
20 *191:8 *216:8 0
21 *191:24 *194:16 0.000241053
22 *191:24 *200:100 0.000129495
23 *191:24 *200:106 0
24 *191:24 *211:18 0.000111929
25 *191:41 *1461:A 6.53382e-05
26 *191:41 *206:6 0.000268074
27 *191:60 *222:68 0.000315096
28 *191:68 *213:33 8.93979e-06
29 *191:72 *226:16 0
30 *1448:C *1525:A 0.000229801
31 *1562:RESET_B *1558:A 7.6084e-05
32 *1575:CLK *191:8 2.46345e-05
33 *1575:CLK *191:24 9.63642e-05
34 *1575:CLK *191:41 5.3304e-05
35 *1588:CLK *191:78 3.28621e-05
36 *1588:D *191:78 1.24298e-05
37 *1588:RESET_B *191:78 9.03364e-06
38 *29:8 *191:86 0.00499
39 *30:10 *191:24 0.000784663
40 *34:18 *191:60 0.000188164
41 *43:26 *191:24 0
42 *45:20 *191:24 0.000263508
43 *47:130 *191:24 0.000135584
44 *50:16 *191:24 0.000142953
45 *54:18 *191:24 0
46 *58:20 *191:86 0.000493912
47 *67:12 *1558:A 0.000276334
48 *68:10 *191:86 0.000835383
49 *72:10 *191:8 0
50 *79:8 *1559:A 0.000278953
51 *79:10 *191:86 0.000320158
52 *92:14 *191:72 0
53 *92:14 *191:78 0
54 *101:12 *191:68 0
55 *105:29 *191:78 0.000151066
56 *105:140 *191:24 0.000251021
57 *107:10 *191:8 3.89868e-05
58 *115:114 *1559:A 1.23172e-05
59 *115:114 *191:84 1.25212e-05
60 *115:114 *191:86 0.000577754
61 *116:14 *191:84 0.000126901
62 *120:60 *191:24 0.000111929
63 *125:18 *191:78 0.000109329
64 *129:101 *191:41 0.000331494
65 *129:103 *191:41 5.37348e-06
66 *129:103 *191:43 0.000619387
67 *129:111 *1547:A 2.1369e-05
68 *129:111 *191:43 1.05235e-05
69 *129:111 *191:60 3.76761e-05
70 *129:120 *191:60 0.00088232
71 *129:120 *191:72 0.00115752
72 *129:120 *191:78 0.000260338
73 *131:14 *191:84 8.32438e-05
74 *131:14 *191:86 7.31043e-06
75 *134:80 *191:41 5.50049e-05
76 *137:24 *191:78 0
77 *146:10 *191:60 0
78 *148:16 *1559:A 0.000206475
79 *153:10 *191:86 0
80 *156:23 *1525:A 0.000229801
81 *156:37 *191:78 6.50721e-06
82 *158:20 *191:24 0
83 *161:24 *191:24 0.00381869
84 *164:12 *191:24 0.000102254
85 *165:35 *191:24 0.000102381
86 *165:37 *191:24 0.000380676
87 *170:24 *191:86 0
88 *175:66 *191:68 0.00031084
89 *175:81 *191:68 0.000309298
90 *181:101 *1559:A 0.000221992
91 *181:105 *191:86 0
92 *181:109 *1536:A 0.000456638
93 *185:35 *191:78 2.72475e-06
94 *186:10 *191:24 0.000100796
95 *186:72 *191:24 0.00015631
96 *186:74 *191:24 0.000168471
97 *187:8 *191:78 9.49385e-05
98 *187:117 *191:72 0
99 *187:138 *191:24 0.000107406
100 *188:95 *191:72 0
*RES
1 *1602:X *191:8 49.4136 
2 *191:8 *191:24 49.4159 
3 *191:24 *1558:A 47.8496 
4 *191:8 *191:41 31.6025 
5 *191:41 *191:43 26.5868 
6 *191:43 *1547:A 33.6471 
7 *191:43 *191:60 45.95 
8 *191:60 *191:68 38.2029 
9 *191:68 *191:72 31.3436 
10 *191:72 *191:78 38.345 
11 *191:78 *191:84 18.0554 
12 *191:84 *191:86 75.3275 
13 *191:86 *1536:A 42.9093 
14 *191:84 *1559:A 46.5654 
15 *191:72 *1525:A 40.5271 
*END

*D_NET *192 0.00140482
*CONN
*I *1514:A1 I *D sky130_fd_sc_hd__o211a_1
*I *1601:X O *D sky130_fd_sc_hd__dlygate4sd3_1
*CAP
1 *1514:A1 0
2 *1601:X 0.000343457
3 *192:10 0.000343457
4 *192:10 *217:12 5.50106e-05
5 *192:10 *217:14 0.000356724
6 *192:10 *217:50 0.000139647
7 *154:14 *192:10 0.000166522
8 *157:12 *192:10 0
*RES
1 *1601:X *192:10 44.6907 
2 *192:10 *1514:A1 38 
*END

*D_NET *193 0.0179928
*CONN
*I *1603:A I *D sky130_fd_sc_hd__buf_2
*I *1592:X O *D sky130_fd_sc_hd__buf_1
*CAP
1 *1603:A 0
2 *1592:X 0.00114861
3 *193:34 0.00121139
4 *193:30 0.00224989
5 *193:26 0.0012775
6 *193:16 0.00153157
7 *193:14 0.00151825
8 *193:8 0.00137429
9 *193:8 *1592:A 0.000208481
10 *193:14 *213:77 0
11 *193:26 *205:8 0.000344596
12 *193:26 *227:73 0.000133316
13 *193:30 *205:8 0.000717963
14 seg[1] *193:34 1.02561e-05
15 *1562:D *193:16 0.00072806
16 *46:14 *193:16 0.00272741
17 *46:18 *193:14 9.82961e-05
18 *47:189 *193:8 0.000360451
19 *95:16 *193:14 1.7403e-05
20 *105:48 *193:14 0
21 *122:6 *193:16 0.00111203
22 *132:16 *193:34 0
23 *157:12 *193:26 3.88504e-05
24 *170:39 *193:16 0.000880446
25 *177:6 *193:26 0.00030373
*RES
1 *1592:X *193:8 41.27 
2 *193:8 *193:14 34.7229 
3 *193:14 *193:16 41.1179 
4 *193:16 *193:26 36.3593 
5 *193:26 *193:30 29.9143 
6 *193:30 *193:34 36.6257 
7 *193:34 *1603:A 23 
*END

*D_NET *194 0.0204298
*CONN
*I *1604:A I *D sky130_fd_sc_hd__buf_2
*I *1518:Y O *D sky130_fd_sc_hd__nor2_1
*CAP
1 *1604:A 0
2 *1518:Y 0.000120105
3 *194:26 0.00140913
4 *194:16 0.00278511
5 *194:14 0.00137598
6 *194:12 0.00149057
7 *194:10 0.00149057
8 *194:8 0.000120105
9 *194:8 *213:33 7.19844e-05
10 *194:12 *225:14 0.00208834
11 *1562:CLK *194:26 3.3577e-05
12 *1562:RESET_B *194:16 2.56065e-05
13 *1568:D *194:12 2.64616e-05
14 *23:16 *194:8 0
15 *45:20 *194:16 0.00256415
16 *50:16 *194:16 0.00158359
17 *85:6 *194:12 2.8914e-05
18 *92:14 *194:12 0.000136724
19 *100:16 *194:12 0.000547363
20 *115:30 *194:16 1.40281e-05
21 *115:30 *194:26 8.30162e-05
22 *164:12 *194:16 0.000160062
23 *176:41 *194:12 0.000623816
24 *177:12 *194:16 0.000690288
25 *184:8 *194:16 0.000461292
26 *184:10 *194:16 0.000393419
27 *184:12 *194:16 0.000148525
28 *184:12 *194:26 2.97932e-05
29 *184:14 *194:26 4.54033e-05
30 *184:108 *194:16 0.00102734
31 *189:30 *194:12 0.000613463
32 *191:24 *194:16 0.000241053
*RES
1 *1518:Y *194:8 40.2579 
2 *194:8 *194:10 15 
3 *194:10 *194:12 38.7357 
4 *194:12 *194:14 15 
5 *194:14 *194:16 49.6211 
6 *194:16 *194:26 33.9432 
7 *194:26 *1604:A 23 
*END

*D_NET *195 0.0167347
*CONN
*I *1605:A I *D sky130_fd_sc_hd__buf_2
*I *1519:Y O *D sky130_fd_sc_hd__a21oi_1
*CAP
1 *1605:A 0.000204864
2 *1519:Y 0.000433907
3 *195:18 0.00149439
4 *195:16 0.0017575
5 *195:10 0.000901878
6 *195:10 *201:72 0.000187835
7 *1505:B1 *195:10 0.000431267
8 *56:16 *195:10 0.000190117
9 *61:8 *195:16 0.00060699
10 *61:10 *195:18 8.80477e-05
11 *62:10 *195:18 0.00513481
12 *99:14 *195:16 0.000320911
13 *132:16 *195:18 0.00492636
14 *180:101 *195:16 5.58003e-05
*RES
1 *1519:Y *195:10 45.5193 
2 *195:10 *195:16 40.6264 
3 *195:16 *195:18 67.4043 
4 *195:18 *1605:A 40.5271 
*END

*D_NET *196 0.0197595
*CONN
*I *1606:A I *D sky130_fd_sc_hd__buf_2
*I *1592:A I *D sky130_fd_sc_hd__buf_1
*I *1517:X O *D sky130_fd_sc_hd__a2111o_1
*CAP
1 *1606:A 0.00122022
2 *1592:A 0.000320526
3 *1517:X 0
4 *196:43 0.00165484
5 *196:33 0.00281517
6 *196:31 0.00349049
7 *196:8 0.00122224
8 *196:4 0.00201165
9 *1606:A *210:14 8.04e-05
10 *1606:A *211:6 0.000808141
11 *1606:A *211:79 0.000175903
12 *196:8 *227:99 0.000987104
13 *196:31 *216:39 0.000300463
14 *196:33 *1468:A 8.15864e-05
15 *196:33 *205:61 6.71175e-05
16 *196:43 *210:14 0.000157011
17 *196:43 *226:31 0.00027635
18 *196:43 *226:37 1.0092e-05
19 *1569:RESET_B *196:31 5.61255e-06
20 *1569:RESET_B *196:33 0.000259265
21 *1577:RESET_B *196:43 3.95159e-06
22 *42:10 *196:43 6.4393e-05
23 *46:26 *196:31 0.000881847
24 *58:20 *196:8 0.000322346
25 *66:10 *196:43 0.000101886
26 *70:10 *196:8 0
27 *70:10 *196:31 0.000141891
28 *76:26 *196:33 0.000641806
29 *80:18 *196:8 0.000474529
30 *98:24 *1606:A 5.52683e-05
31 *120:26 *196:43 1.83408e-05
32 *142:28 *196:43 0.000224077
33 *179:36 *196:8 0.000486169
34 *188:38 *196:31 0.000180224
35 *189:38 *196:8 1.0092e-05
36 *193:8 *1592:A 0.000208481
*RES
1 *1517:X *196:4 23 
2 *196:4 *196:8 41.2036 
3 *196:8 *1592:A 43.8829 
4 *196:4 *196:31 47.1929 
5 *196:31 *196:33 36.3536 
6 *196:33 *196:43 40.1086 
7 *196:43 *1606:A 44.1079 
*END

*D_NET *197 0.0126483
*CONN
*I *1607:A I *D sky130_fd_sc_hd__buf_2
*I *1521:X O *D sky130_fd_sc_hd__buf_1
*CAP
1 *1607:A 0
2 *1521:X 0.00112392
3 *197:10 0.00118755
4 *197:8 0.00118755
5 *197:6 0.00112392
6 *197:10 *221:10 0
7 *197:10 *221:45 1.14277e-05
8 *35:18 *197:10 0.00402357
9 *37:6 *197:6 0.000481066
10 *57:12 *197:10 0.00193048
11 *77:16 *197:6 0.000200208
12 *99:10 *197:10 7.58083e-05
13 *181:51 *197:10 5.50587e-05
14 *181:57 *197:10 0.000192942
15 *181:63 *197:10 0.00105479
*RES
1 *1521:X *197:6 37.4379 
2 *197:6 *197:8 15 
3 *197:8 *197:10 52.9664 
4 *197:10 *1607:A 38 
*END

*D_NET *198 0.00198064
*CONN
*I *1608:A I *D sky130_fd_sc_hd__buf_2
*I *1523:X O *D sky130_fd_sc_hd__clkbuf_1
*CAP
1 *1608:A 0
2 *1523:X 0.000281232
3 *198:8 0.000281232
4 *26:22 *198:8 0.000801615
5 *35:16 *198:8 0.000616562
6 *62:10 *198:8 0
*RES
1 *1523:X *198:8 48.7093 
2 *198:8 *1608:A 38 
*END

*D_NET *199 0.01682
*CONN
*I *1609:A I *D sky130_fd_sc_hd__buf_2
*I *231:DIODE I *D sky130_fd_sc_hd__diode_2
*I *1524:Y O *D sky130_fd_sc_hd__a21boi_2
*CAP
1 *1609:A 0.000145113
2 *231:DIODE 0
3 *1524:Y 5.29331e-05
4 *199:36 0.000266191
5 *199:30 0.00169439
6 *199:24 0.00338707
7 *199:16 0.00327476
8 *199:8 0.00151393
9 *199:24 *213:14 0.00109717
10 *199:24 *213:22 0.00044458
11 *199:30 *200:106 5.50049e-05
12 *199:30 *211:43 0.000270682
13 *199:30 *213:22 0.000243083
14 *199:30 *216:12 0.00141338
15 *1504:A *199:24 5.3304e-05
16 *1504:B *199:24 2.64616e-05
17 *1524:A1 *199:8 5.68958e-05
18 *1537:A *199:30 0.000100061
19 *58:20 *199:24 0.000340503
20 *62:8 *199:30 0.000245687
21 *81:12 *199:16 0.00139909
22 *129:143 *199:30 2.56967e-05
23 *185:12 *199:24 0.000714003
*RES
1 *1524:Y *199:8 39.0979 
2 *199:8 *199:16 48.1325 
3 *199:16 *199:24 42.0189 
4 *199:24 *199:30 38.9014 
5 *199:30 *199:36 31.9057 
6 *199:36 *231:DIODE 23 
7 *199:36 *1609:A 25.7757 
*END

*D_NET *200 0.0475108
*CONN
*I *1422:B I *D sky130_fd_sc_hd__or2_1
*I *1425:C I *D sky130_fd_sc_hd__nand3_1
*I *1421:B I *D sky130_fd_sc_hd__nand2_1
*I *1420:A I *D sky130_fd_sc_hd__nor2_1
*I *1426:A2 I *D sky130_fd_sc_hd__a21o_1
*I *1407:D I *D sky130_fd_sc_hd__and4_2
*I *1429:A3 I *D sky130_fd_sc_hd__a31o_1
*I *1560:Q O *D sky130_fd_sc_hd__dfrtp_4
*CAP
1 *1422:B 6.84936e-05
2 *1425:C 0
3 *1421:B 0
4 *1420:A 0
5 *1426:A2 0.000188727
6 *1407:D 0
7 *1429:A3 0
8 *1560:Q 0
9 *200:131 0.00145
10 *200:129 0.00180586
11 *200:123 0.000552803
12 *200:106 0.000847391
13 *200:100 0.00203204
14 *200:90 0.00105619
15 *200:88 0.000797389
16 *200:84 0.00140074
17 *200:61 0.000753505
18 *200:55 0.000442423
19 *200:47 0.00165614
20 *200:34 0.00272099
21 *200:23 0.000799119
22 *200:10 0.00257262
23 *200:4 0.00294188
24 *1422:B *1422:A 0.000128497
25 *1426:A2 *221:10 0.000138747
26 *200:10 *1486:A2 2.52012e-05
27 *200:10 *208:34 0.000418117
28 *200:10 *208:38 7.50592e-05
29 *200:10 *208:48 2.80201e-05
30 *200:10 *210:40 0.000584486
31 *200:10 *210:48 0.000117078
32 *200:23 *1407:C 5.3304e-05
33 *200:23 *211:114 0.00139672
34 *200:47 *1426:A1 0
35 *200:47 *211:87 0
36 *200:47 *221:10 0.0027633
37 *200:84 *221:8 0.000186606
38 *200:88 *202:47 0.000170069
39 *200:88 *221:45 0.000597611
40 *200:88 *221:66 0.000698093
41 *200:100 *1422:A 0.000435371
42 *200:100 *211:18 0.000135037
43 *200:106 *211:43 0.000351151
44 *200:106 *211:49 4.21594e-06
45 *200:123 *223:43 0.000350583
46 *200:129 *223:43 0.000972836
47 *200:131 *211:32 0.00282701
48 *200:131 *222:68 0.00131072
49 *200:131 *223:43 0.000341917
50 *1397:A *200:123 2.02872e-05
51 *1420:B *200:61 9.41704e-05
52 *1459:C *200:23 9.64943e-05
53 *1560:D *200:34 0.000277896
54 *1560:RESET_B *200:10 0.000326398
55 *1560:RESET_B *200:34 0.000166561
56 *1575:CLK *200:106 0
57 *1579:RESET_B *200:55 0
58 *1579:RESET_B *200:88 0
59 *20:8 *200:61 2.02872e-05
60 *21:6 *200:10 1.5725e-05
61 *21:6 *200:34 7.96217e-05
62 *47:12 *200:23 5.21788e-05
63 *47:174 *200:23 1.3523e-05
64 *50:12 *200:123 6.12392e-05
65 *77:8 *200:84 8.06804e-06
66 *77:12 *200:47 0.000559758
67 *77:12 *200:55 0.000291276
68 *88:6 *200:123 0.000396431
69 *93:49 *200:23 0.000635188
70 *95:121 *200:23 0
71 *98:24 *200:88 0.000318656
72 *120:60 *200:100 0.00181635
73 *120:60 *200:106 1.07299e-05
74 *120:60 *200:123 2.23467e-05
75 *129:54 *200:55 2.81066e-05
76 *129:62 *200:88 0.00125987
77 *129:66 *200:88 0.000771996
78 *134:6 *200:129 0.000823037
79 *147:168 *200:106 0.000211858
80 *165:37 *200:100 0.000623817
81 *165:37 *200:106 0.000856175
82 *179:156 *200:100 0.000852794
83 *180:10 *200:10 0.000109612
84 *180:10 *200:23 2.49424e-05
85 *181:57 *200:84 1.54844e-05
86 *181:63 *200:84 0.000151699
87 *186:10 *200:123 2.58781e-05
88 *189:14 *200:100 9.17507e-05
89 *191:8 *200:106 0
90 *191:24 *200:100 0.000129495
91 *191:24 *200:106 0
92 *199:30 *200:106 5.50049e-05
*RES
1 *1560:Q *200:4 23 
2 *200:4 *200:10 49.9036 
3 *200:10 *1429:A3 38 
4 *200:10 *200:23 35.9629 
5 *200:23 *1407:D 23 
6 *200:4 *200:34 31.8407 
7 *200:34 *1426:A2 41.48 
8 *200:34 *200:47 36.7679 
9 *200:47 *200:55 35.1164 
10 *200:55 *200:61 17.5479 
11 *200:61 *1420:A 23 
12 *200:61 *200:84 42.1179 
13 *200:84 *200:88 42.6121 
14 *200:88 *200:90 15 
15 *200:90 *200:100 48.3811 
16 *200:100 *200:106 35.6625 
17 *200:106 *1421:B 23 
18 *200:100 *200:123 36.2246 
19 *200:123 *200:129 26.6 
20 *200:129 *200:131 38.2593 
21 *200:131 *1425:C 23 
22 *200:90 *1422:B 24.5743 
*END

*D_NET *201 0.0499306
*CONN
*I *1454:A I *D sky130_fd_sc_hd__nand2_1
*I *1453:A I *D sky130_fd_sc_hd__or2_1
*I *1457:A1 I *D sky130_fd_sc_hd__a21oi_2
*I *1474:B I *D sky130_fd_sc_hd__and4_1
*I *1458:B I *D sky130_fd_sc_hd__and3_2
*I *1411:B I *D sky130_fd_sc_hd__or4_2
*I *1570:Q O *D sky130_fd_sc_hd__dfrtp_4
*CAP
1 *1454:A 0
2 *1453:A 0.000119645
3 *1457:A1 0
4 *1474:B 0
5 *1458:B 7.11247e-05
6 *1411:B 0.000446468
7 *1570:Q 0.000400104
8 *201:105 0.0007446
9 *201:89 0.000893501
10 *201:76 0.0032148
11 *201:74 0.0032148
12 *201:72 0.00145908
13 *201:61 0.00226671
14 *201:46 0.00269083
15 *201:38 0.00170198
16 *201:30 0.00135413
17 *201:18 0.0023584
18 *201:14 0.00386253
19 *201:12 0.00154578
20 *1411:B *202:20 0.00030969
21 *1411:B *226:58 0.000110068
22 *201:12 *208:48 1.94835e-05
23 *201:12 *209:14 2.81066e-05
24 *201:14 *215:14 0.000837525
25 *201:14 *217:29 0.000322597
26 *201:18 *210:32 2.45549e-06
27 *201:18 *227:89 0.000195819
28 *201:18 *227:93 0.000208903
29 *201:30 *204:10 9.28078e-06
30 *201:30 *204:21 0.000153537
31 *201:30 *218:22 7.95668e-05
32 *201:38 *206:57 0.000631618
33 *201:61 *211:12 0.00101522
34 *201:72 *202:66 0
35 *201:89 *1457:B1 0.000185368
36 *201:89 *202:93 0
37 *201:105 *215:14 0.000139657
38 *201:105 *215:29 0.000855357
39 *201:105 *217:29 0.000315533
40 *201:105 *217:31 2.66481e-05
41 *1494:A *201:14 3.53031e-05
42 *1505:A2 *201:76 0.000209579
43 *1505:B1 *201:76 6.57815e-06
44 *1505:B2 *201:76 1.40958e-05
45 *1519:B1 *201:76 5.49301e-05
46 *1572:CLK *201:46 0
47 *1572:RESET_B *201:46 0.000195316
48 *1572:RESET_B *201:61 0.000203022
49 *20:10 *201:46 0.000137544
50 *25:10 *201:46 0.00101131
51 *25:10 *201:61 0.00166572
52 *56:16 *201:61 0.000627239
53 *56:16 *201:72 0.000356792
54 *56:16 *201:89 0.000475426
55 *56:24 *201:61 0.000452068
56 *72:10 *201:61 0.000231134
57 *88:6 *1458:B 9.88204e-05
58 *88:30 *201:105 0.00101512
59 *94:30 *201:38 0.000177604
60 *95:32 *201:38 2.17486e-05
61 *96:27 *201:30 0.000693301
62 *97:44 *201:105 2.22077e-05
63 *98:39 *201:76 0.0032375
64 *103:14 *201:30 0.000712592
65 *105:12 *201:105 0.000777894
66 *105:48 *201:14 0
67 *105:56 *201:14 2.26406e-05
68 *105:77 *201:14 1.23514e-05
69 *105:127 *201:46 0
70 *110:26 *201:14 0.000483675
71 *129:35 *1453:A 8.27026e-05
72 *129:35 *201:38 0.000678545
73 *129:93 *201:89 0
74 *129:143 *201:89 0.000339309
75 *129:151 *201:89 9.88674e-05
76 *130:12 *1453:A 5.56356e-05
77 *143:41 *201:38 0.000131538
78 *156:10 *201:38 0.000133316
79 *162:24 *201:14 0.000127194
80 *162:24 *201:105 0.000190817
81 *167:28 *201:72 0.000404592
82 *180:79 *201:89 2.95125e-05
83 *180:101 *201:72 0
84 *183:16 *201:14 0.000881337
85 *183:22 *201:14 0.000965796
86 *183:39 *201:12 0.000149629
87 *184:112 *201:46 0
88 *186:27 *201:76 0.000312888
89 *187:46 *201:18 0.000396204
90 *189:14 *201:61 0
91 *189:14 *201:72 0
92 *190:41 *201:105 2.24973e-05
93 *195:10 *201:72 0.000187835
*RES
1 *1570:Q *201:12 45.3329 
2 *201:12 *201:14 33.5986 
3 *201:14 *201:18 44.6836 
4 *201:18 *201:30 42.0971 
5 *201:30 *201:38 49.6786 
6 *201:38 *201:46 31.4057 
7 *201:46 *1411:B 43.8621 
8 *201:46 *201:61 46.4621 
9 *201:61 *1458:B 39.0979 
10 *201:61 *201:72 13.1743 
11 *201:72 *201:74 15 
12 *201:74 *201:76 49.2171 
13 *201:76 *1474:B 23 
14 *201:72 *201:89 35.6107 
15 *201:89 *1457:A1 23 
16 *201:38 *1453:A 25.0507 
17 *201:14 *201:105 39.795 
18 *201:105 *1454:A 23 
*END

*D_NET *202 0.036321
*CONN
*I *1457:B1 I *D sky130_fd_sc_hd__a21oi_2
*I *1474:A I *D sky130_fd_sc_hd__and4_1
*I *1458:A I *D sky130_fd_sc_hd__and3_2
*I *1411:A I *D sky130_fd_sc_hd__or4_2
*I *1571:Q O *D sky130_fd_sc_hd__dfrtp_4
*CAP
1 *1457:B1 5.58951e-05
2 *1474:A 0
3 *1458:A 3.95309e-05
4 *1411:A 0.000340793
5 *1571:Q 2.34823e-05
6 *202:93 0.000793565
7 *202:76 0.000848186
8 *202:72 0.00168393
9 *202:66 0.00196602
10 *202:49 0.000733027
11 *202:47 0.00340216
12 *202:20 0.00419887
13 *202:12 0.00249479
14 *202:6 0.00176147
15 *202:12 *203:18 0.000210431
16 *202:12 *206:26 9.89343e-05
17 *202:12 *208:12 4.49877e-05
18 *202:12 *227:53 0.000178517
19 *202:20 *226:58 0.000669093
20 *202:47 *221:66 0.000325098
21 *1397:A *1458:A 0.000140927
22 *1411:B *202:20 0.00030969
23 *1411:D *1411:A 9.65021e-05
24 *1458:C *1458:A 0.000140927
25 *1519:B1 *202:76 0.00118473
26 *1564:RESET_B *202:47 0
27 *1577:RESET_B *202:12 8.05232e-05
28 *1579:RESET_B *202:47 0
29 *1580:CLK *202:72 0.000135115
30 *1580:D *202:72 6.87486e-05
31 *28:12 *202:20 0.000558989
32 *36:16 *202:76 0.000405952
33 *47:111 *202:76 0.000395547
34 *47:130 *202:76 0.000252749
35 *97:22 *202:6 0
36 *97:22 *202:12 0.000181748
37 *99:14 *202:72 0.00165171
38 *99:14 *202:93 8.40645e-05
39 *104:22 *202:12 0.00182726
40 *129:62 *202:20 0.000110184
41 *129:62 *202:47 0.000175673
42 *129:66 *202:49 0.00108764
43 *129:66 *202:66 3.46013e-05
44 *129:93 *202:66 0.00050549
45 *129:93 *202:93 0.000223061
46 *129:151 *1457:B1 0.000144501
47 *129:151 *202:93 0.000481637
48 *134:80 *202:72 0.000132987
49 *144:10 *202:12 1.67858e-05
50 *155:22 *202:12 0.000137651
51 *158:20 *202:12 0.000376507
52 *167:28 *202:66 0
53 *168:44 *202:76 0.0019915
54 *175:83 *202:72 0.00100834
55 *180:101 *202:66 5.91105e-05
56 *180:101 *202:93 0.000614203
57 *181:51 *1411:A 0.000138745
58 *189:14 *202:47 0.000127194
59 *189:14 *202:49 0.00109027
60 *189:14 *202:66 0.000125524
61 *200:88 *202:47 0.000170069
62 *201:72 *202:66 0
63 *201:89 *1457:B1 0.000185368
64 *201:89 *202:93 0
*RES
1 *1571:Q *202:6 23.4971 
2 *202:6 *202:12 49.0336 
3 *202:12 *202:20 45.515 
4 *202:20 *1411:A 42.8057 
5 *202:20 *202:47 39.851 
6 *202:47 *202:49 14.4068 
7 *202:49 *1458:A 39.5743 
8 *202:49 *202:66 24.3629 
9 *202:66 *202:72 37.5371 
10 *202:72 *202:76 45.6364 
11 *202:76 *1474:A 23 
12 *202:66 *202:93 48.2079 
13 *202:93 *1457:B1 25.0507 
*END

*D_NET *203 0.0261691
*CONN
*I *1461:A I *D sky130_fd_sc_hd__nand2_1
*I *1465:A I *D sky130_fd_sc_hd__nand3_1
*I *1460:A I *D sky130_fd_sc_hd__or2_1
*I *1464:A1 I *D sky130_fd_sc_hd__a21o_1
*I *1410:C I *D sky130_fd_sc_hd__and4_1
*I *1572:Q O *D sky130_fd_sc_hd__dfrtp_2
*CAP
1 *1461:A 9.00097e-05
2 *1465:A 0
3 *1460:A 8.97051e-05
4 *1464:A1 0
5 *1410:C 0
6 *1572:Q 0.00112381
7 *203:82 0.00120949
8 *203:80 0.00133777
9 *203:51 0.00134215
10 *203:45 0.00183944
11 *203:37 0.000676952
12 *203:31 0.0010792
13 *203:18 0.00110365
14 *203:14 0.00163591
15 *1460:A *224:10 7.37814e-06
16 *203:14 *1499:A 0.000310746
17 *203:18 *206:26 0.0010901
18 *203:37 *204:46 4.44329e-05
19 *203:45 *204:46 5.56356e-05
20 *203:45 *209:76 0.000178517
21 *203:45 *224:10 8.34602e-06
22 *203:45 *224:16 0.000186448
23 *203:45 *225:67 0.00023219
24 *203:51 *1464:B1 0.000556476
25 *203:51 *224:10 1.86371e-05
26 *203:51 *225:16 7.10099e-05
27 *203:51 *225:24 7.34858e-05
28 *203:51 *225:67 9.55314e-05
29 *1499:B *203:14 0.000220592
30 *23:34 *203:14 0.000197363
31 *42:10 *203:80 0.000384626
32 *42:10 *203:82 0.00114911
33 *47:56 *203:51 6.62991e-05
34 *47:64 *203:51 0.000516006
35 *51:14 *203:31 6.10714e-05
36 *54:18 *203:18 0.000196599
37 *54:18 *203:31 0.000129592
38 *66:10 *203:80 6.7177e-06
39 *72:8 *203:14 4.17001e-05
40 *82:8 *203:31 0.00028363
41 *88:14 *203:31 4.96717e-05
42 *88:14 *203:37 0.000164628
43 *88:14 *203:45 0.000862297
44 *106:10 *203:51 0.00021263
45 *106:41 *203:51 0.000471182
46 *125:12 *203:51 2.77224e-05
47 *129:101 *1461:A 9.91798e-05
48 *134:14 *203:37 0.000262913
49 *134:14 *203:80 0.000161276
50 *134:14 *203:82 0.00161759
51 *134:22 *203:37 7.17257e-05
52 *134:22 *203:45 0.000329051
53 *134:80 *1461:A 5.50049e-05
54 *134:80 *203:82 0.000939139
55 *135:14 *203:51 0.00192251
56 *144:10 *203:18 0.000265914
57 *144:10 *203:31 0.000188313
58 *155:16 *1460:A 6.17437e-06
59 *155:74 *203:82 0.000165761
60 *164:8 *203:14 2.64616e-05
61 *181:24 *1460:A 5.11621e-05
62 *186:48 *203:82 7.75329e-06
63 *186:80 *203:14 0.000224956
64 *191:41 *1461:A 6.53382e-05
65 *202:12 *203:18 0.000210431
*RES
1 *1572:Q *203:14 40.5036 
2 *203:14 *203:18 29.935 
3 *203:18 *1410:C 38 
4 *203:18 *203:31 27.325 
5 *203:31 *203:37 6.02786 
6 *203:37 *203:45 28.4332 
7 *203:45 *203:51 48.4225 
8 *203:51 *1464:A1 23 
9 *203:45 *1460:A 39.9161 
10 *203:37 *1465:A 23 
11 *203:31 *203:80 20.8725 
12 *203:80 *203:82 35.1832 
13 *203:82 *1461:A 40.5479 
*END

*D_NET *204 0.014688
*CONN
*I *1410:D I *D sky130_fd_sc_hd__and4_1
*I *1465:B I *D sky130_fd_sc_hd__nand3_1
*I *1464:B1 I *D sky130_fd_sc_hd__a21o_1
*I *1412:B I *D sky130_fd_sc_hd__and4b_1
*I *1573:Q O *D sky130_fd_sc_hd__dfrtp_1
*CAP
1 *1410:D 0.000699559
2 *1465:B 0
3 *1464:B1 0.000488539
4 *1412:B 0.000144367
5 *1573:Q 0.000287652
6 *204:46 0.000340673
7 *204:38 0.00223289
8 *204:21 0.00189152
9 *204:10 0.000642347
10 *1410:D *205:78 7.31967e-05
11 *1410:D *206:26 1.3523e-05
12 *1412:B *1412:C 5.56356e-05
13 *1412:B *206:57 0.000107607
14 *1412:B *210:32 2.42245e-05
15 *1464:B1 *209:70 9.84794e-05
16 *204:10 *210:32 0.000273998
17 *204:10 *218:22 1.32435e-05
18 *204:10 *223:31 0.000123122
19 *204:21 *218:22 7.38724e-05
20 *204:21 *223:31 1.02219e-05
21 *204:38 *209:70 0.000176808
22 *204:38 *218:22 4.99753e-06
23 *204:38 *223:31 0.000331957
24 *1484:A3 *1464:B1 0.000463315
25 *1573:RESET_B *204:10 5.50106e-05
26 *31:14 *204:38 2.49836e-05
27 *65:24 *1410:D 0.000599987
28 *65:24 *204:38 0.000523002
29 *80:10 *204:10 1.73824e-05
30 *97:30 *204:38 0.00120055
31 *100:10 *204:21 0.000390389
32 *100:10 *204:38 0.00165664
33 *134:22 *204:46 9.92345e-05
34 *134:40 *1464:B1 9.41704e-05
35 *141:10 *204:46 0.000530399
36 *187:69 *204:10 0.000105122
37 *201:30 *204:10 9.28078e-06
38 *201:30 *204:21 0.000153537
39 *203:37 *204:46 4.44329e-05
40 *203:45 *204:46 5.56356e-05
41 *203:51 *1464:B1 0.000556476
*RES
1 *1573:Q *204:10 44.0486 
2 *204:10 *1412:B 40.5271 
3 *204:10 *204:21 5.77929 
4 *204:21 *1464:B1 49.6 
5 *204:21 *204:38 43.8964 
6 *204:38 *204:46 38.2857 
7 *204:46 *1465:B 23 
8 *204:38 *1410:D 32.6736 
*END

*D_NET *205 0.0181017
*CONN
*I *1410:B I *D sky130_fd_sc_hd__and4_1
*I *1468:A I *D sky130_fd_sc_hd__inv_2
*I *1412:C I *D sky130_fd_sc_hd__and4b_1
*I *1574:Q O *D sky130_fd_sc_hd__dfrtp_1
*CAP
1 *1410:B 0
2 *1468:A 2.88311e-05
3 *1412:C 8.09378e-05
4 *1574:Q 0.000783614
5 *205:78 0.000972368
6 *205:61 0.00107277
7 *205:57 0.00058118
8 *205:49 0.00108855
9 *205:30 0.000753247
10 *205:26 0.000605898
11 *205:18 0.00149611
12 *205:8 0.00176719
13 *1412:C *206:57 2.1819e-05
14 *205:26 *206:57 0.000186866
15 *205:26 *210:74 9.92279e-05
16 *205:30 *210:20 4.37036e-05
17 *205:30 *210:74 1.40183e-05
18 *205:30 *225:43 0
19 *205:49 *208:14 1.05658e-05
20 *205:49 *208:18 1.05658e-05
21 *205:49 *210:20 8.53902e-05
22 *205:49 *225:43 0
23 *205:57 *208:24 0.000141191
24 *205:78 *206:26 5.55784e-05
25 *205:78 *222:59 0.00037174
26 *1410:D *205:78 7.31967e-05
27 *1412:B *1412:C 5.56356e-05
28 *1539:A *205:78 3.95551e-05
29 *1574:CLK *205:8 0.000563675
30 *1574:D *205:8 6.97637e-05
31 *1574:RESET_B *205:8 7.80291e-05
32 *47:20 *205:18 9.49561e-05
33 *47:31 *205:18 9.68547e-05
34 *65:24 *205:78 0.000202106
35 *66:10 *205:18 0.000722793
36 *66:10 *205:57 0.000801463
37 *76:20 *205:78 4.82586e-05
38 *76:26 *1468:A 0.000144494
39 *76:26 *205:61 5.58003e-05
40 *94:30 *205:26 6.9908e-05
41 *95:32 *205:26 0.000135037
42 *114:16 *205:18 0.00042199
43 *120:40 *205:49 7.28722e-06
44 *127:24 *205:49 5.49457e-05
45 *129:16 *205:18 6.29002e-05
46 *135:22 *205:26 0.0002469
47 *136:24 *205:57 0.000177535
48 *141:10 *205:78 0
49 *143:33 *205:78 0
50 *143:41 *205:26 0.00013333
51 *143:41 *205:49 4.84619e-05
52 *156:10 *205:26 0.000409726
53 *156:10 *205:57 0.000801463
54 *156:10 *205:78 0.000173671
55 *163:56 *205:49 0.00035597
56 *177:6 *205:18 2.80924e-06
57 *180:54 *205:78 2.58995e-05
58 *180:56 *205:78 0.000334841
59 *190:10 *205:18 0.000109797
60 *193:26 *205:8 0.000344596
61 *193:30 *205:8 0.000717963
62 *196:33 *1468:A 8.15864e-05
63 *196:33 *205:61 6.71175e-05
*RES
1 *1574:Q *205:8 43.88 
2 *205:8 *205:18 48.3943 
3 *205:18 *205:26 41.6414 
4 *205:26 *205:30 16.5536 
5 *205:30 *1412:C 39.0979 
6 *205:30 *205:49 39.5286 
7 *205:49 *205:57 44.065 
8 *205:57 *205:61 16.5743 
9 *205:61 *1468:A 24.5743 
10 *205:61 *205:78 49.8029 
11 *205:78 *1410:B 23 
*END

*D_NET *206 0.0249813
*CONN
*I *1410:A I *D sky130_fd_sc_hd__and4_1
*I *1412:D I *D sky130_fd_sc_hd__and4b_1
*I *1473:A I *D sky130_fd_sc_hd__inv_2
*I *1575:Q O *D sky130_fd_sc_hd__dfrtp_2
*CAP
1 *1410:A 0
2 *1412:D 0
3 *1473:A 0
4 *1575:Q 0.001178
5 *206:57 0.000998397
6 *206:40 0.0010443
7 *206:34 0.0012659
8 *206:26 0.00230066
9 *206:14 0.00114045
10 *206:10 0.00171226
11 *206:8 0.00165247
12 *206:6 0.001178
13 *206:14 *222:59 2.47815e-05
14 *206:26 *216:58 0.00037786
15 *206:26 *222:59 2.31797e-05
16 *206:57 *210:32 1.92239e-05
17 *206:57 *210:74 2.87504e-05
18 *230:DIODE *206:34 9.58714e-05
19 *1410:D *206:26 1.3523e-05
20 *1412:B *206:57 0.000107607
21 *1412:C *206:57 2.1819e-05
22 *1471:A *206:34 0.000180849
23 *1575:CLK *206:6 0.000212328
24 *1575:CLK *206:10 0
25 *1583:RESET_B *206:40 0.000313135
26 *26:22 *206:6 0.000220795
27 *32:10 *206:10 0.00107454
28 *40:12 *206:40 0.000256012
29 *44:26 *206:40 6.95958e-05
30 *45:16 *206:34 6.53942e-05
31 *47:31 *206:26 0.000132142
32 *47:31 *206:34 0.000256099
33 *48:18 *206:40 0.000143373
34 *50:12 *206:10 0.000322239
35 *54:18 *206:10 0.000113817
36 *54:18 *206:26 0.000115647
37 *82:8 *206:26 0.000578738
38 *84:14 *206:40 0.000228903
39 *94:30 *206:57 0.000109847
40 *95:40 *206:40 8.04857e-05
41 *98:35 *206:10 0
42 *115:14 *206:10 0.000456496
43 *115:85 *206:10 0.00169634
44 *128:28 *206:40 2.33476e-05
45 *129:16 *206:40 0.000225331
46 *129:101 *206:6 1.08906e-05
47 *130:24 *206:26 0.000449534
48 *136:24 *206:40 0.000103203
49 *142:28 *206:34 1.56762e-05
50 *143:41 *206:34 0.000137651
51 *144:10 *206:10 0.000336995
52 *144:10 *206:26 9.21347e-06
53 *145:6 *206:40 2.4754e-05
54 *157:12 *206:26 9.73644e-05
55 *157:12 *206:34 0.000259261
56 *157:12 *206:40 0
57 *158:20 *206:26 0.000347087
58 *171:12 *206:40 0.000269845
59 *171:18 *206:40 0.00014196
60 *178:22 *206:6 2.93845e-05
61 *182:39 *206:40 3.54713e-05
62 *184:92 *206:40 0.000186842
63 *186:21 *206:10 0
64 *189:28 *206:10 0.000136486
65 *191:41 *206:6 0.000268074
66 *201:38 *206:57 0.000631618
67 *202:12 *206:26 9.89343e-05
68 *203:18 *206:26 0.0010901
69 *205:26 *206:57 0.000186866
70 *205:78 *206:26 5.55784e-05
*RES
1 *1575:Q *206:6 39.3436 
2 *206:6 *206:8 15 
3 *206:8 *206:10 46.6279 
4 *206:10 *206:14 16.0979 
5 *206:14 *206:26 45.9264 
6 *206:26 *206:34 36.67 
7 *206:34 *206:40 40.5614 
8 *206:40 *1473:A 23 
9 *206:26 *206:57 30.8516 
10 *206:57 *1412:D 23 
11 *206:14 *1410:A 23 
*END

*D_NET *207 0.0385756
*CONN
*I *1487:D I *D sky130_fd_sc_hd__and4_1
*I *1413:B I *D sky130_fd_sc_hd__and4b_1
*I *1478:A I *D sky130_fd_sc_hd__nand2_1
*I *1484:A2 I *D sky130_fd_sc_hd__a31o_1
*I *1477:A I *D sky130_fd_sc_hd__or2_1
*I *1486:A3 I *D sky130_fd_sc_hd__a41o_1
*I *1576:Q O *D sky130_fd_sc_hd__dfrtp_4
*CAP
1 *1487:D 0
2 *1413:B 0
3 *1478:A 0.000122569
4 *1484:A2 0.000149517
5 *1477:A 0
6 *1486:A3 0
7 *1576:Q 0.00127732
8 *207:143 0.000776107
9 *207:135 0.00160264
10 *207:122 0.00120717
11 *207:112 0.00124134
12 *207:89 0.00103964
13 *207:76 0.000753874
14 *207:68 0.00136003
15 *207:55 0.00083292
16 *207:44 0.00131966
17 *207:30 0.00328031
18 *207:24 0.00145477
19 *207:20 0.00198558
20 *207:14 0.000959233
21 *207:12 0.00127732
22 *1484:A2 *1484:B1 0.000357203
23 *1484:A2 *208:24 1.09903e-05
24 *1484:A2 *209:70 5.3304e-05
25 *207:20 *226:16 0.000554074
26 *207:30 *212:71 0
27 *207:30 *217:29 0.00251163
28 *207:44 *209:31 0.00012377
29 *207:68 *219:49 1.22906e-05
30 *207:76 *209:58 3.47781e-05
31 *207:76 *210:20 5.62433e-05
32 *207:89 *226:16 4.15283e-06
33 *207:112 *213:33 0.000118601
34 *207:112 *226:16 2.9217e-05
35 *207:122 *1413:D 5.56356e-05
36 *207:122 *213:33 0.000360508
37 *207:135 *1413:D 0.000811817
38 an[2] *207:44 5.50106e-05
39 *1430:A_N *207:44 0.000406687
40 *1430:C *207:44 5.56279e-05
41 *1437:A2 *207:44 0.000115961
42 *1478:B *1478:A 5.3304e-05
43 *1484:A3 *1484:A2 0.000193371
44 *1484:A3 *207:68 6.17437e-06
45 *1576:D *1478:A 0.000224356
46 *1576:RESET_B *1478:A 5.75592e-05
47 *1578:RESET_B *207:44 0.000135338
48 *23:16 *207:112 0
49 *34:26 *207:30 0.0018752
50 *41:10 *207:24 0.00046787
51 *41:14 *207:76 0.00126289
52 *46:18 *207:20 3.71198e-05
53 *74:22 *207:12 4.85273e-05
54 *74:22 *207:30 0.000150156
55 *80:18 *207:12 9.86551e-06
56 *88:24 *207:112 6.38433e-05
57 *89:16 *207:68 7.21237e-05
58 *92:14 *207:112 0.000345304
59 *100:10 *207:76 0.000160182
60 *105:92 *207:44 3.01852e-05
61 *105:110 *207:76 0.000654988
62 *107:24 *207:12 1.84428e-05
63 *108:26 *207:12 0.000187242
64 *112:8 *207:30 0.000292316
65 *112:8 *207:44 0.000503472
66 *127:24 *207:20 0.000113929
67 *129:120 *207:20 0
68 *129:120 *207:122 0
69 *138:8 *207:68 5.50049e-05
70 *138:10 *207:68 0.000135557
71 *141:10 *207:143 0
72 *146:10 *207:20 0.000306299
73 *147:22 *207:24 0.000202053
74 *147:22 *207:68 0.000510743
75 *147:48 *207:44 5.79559e-05
76 *147:57 *207:55 0.00108888
77 *147:141 *207:112 0.000124152
78 *152:8 *207:112 0.000312837
79 *153:6 *207:24 7.88194e-05
80 *160:16 *207:30 0.000259628
81 *162:24 *207:30 0.000101533
82 *167:10 *207:20 0.000203096
83 *175:28 *207:20 0
84 *176:22 *207:20 0.000254457
85 *180:133 *1478:A 5.3304e-05
86 *180:133 *207:112 0.000185755
87 *183:28 *207:44 0.000206203
88 *187:46 *207:20 0.000540116
89 *187:130 *207:143 0.000460713
90 *189:38 *207:12 2.47015e-05
91 *190:69 *207:143 8.25782e-05
*RES
1 *1576:Q *207:12 48.7813 
2 *207:12 *207:14 8 
3 *207:14 *207:20 36.9468 
4 *207:20 *207:24 22.2914 
5 *207:24 *207:30 38.9429 
6 *207:30 *207:44 41.7836 
7 *207:44 *1486:A3 23 
8 *207:30 *207:55 28.5057 
9 *207:55 *1477:A 23 
10 *207:20 *207:68 43.3607 
11 *207:68 *207:76 46.6957 
12 *207:76 *1484:A2 27.93 
13 *207:14 *207:89 0.9425 
14 *207:89 *1478:A 41.0243 
15 *207:89 *207:112 49.2746 
16 *207:112 *207:122 21.9911 
17 *207:122 *1413:B 23 
18 *207:122 *207:135 41.3514 
19 *207:135 *207:143 40.875 
20 *207:143 *1487:D 23 
*END

*D_NET *208 0.0421177
*CONN
*I *1487:C I *D sky130_fd_sc_hd__and4_1
*I *1481:A I *D sky130_fd_sc_hd__xor2_1
*I *1413:A_N I *D sky130_fd_sc_hd__and4b_1
*I *1483:B I *D sky130_fd_sc_hd__nand2_1
*I *1484:A1 I *D sky130_fd_sc_hd__a31o_1
*I *1486:A2 I *D sky130_fd_sc_hd__a41o_1
*I *1406:A2 I *D sky130_fd_sc_hd__a21o_1
*I *1577:Q O *D sky130_fd_sc_hd__dfrtp_4
*CAP
1 *1487:C 0
2 *1481:A 0
3 *1413:A_N 1.50079e-05
4 *1483:B 0.000116177
5 *1484:A1 0
6 *1486:A2 0.000311795
7 *1406:A2 0
8 *1577:Q 0.000537855
9 *208:128 0.000855538
10 *208:111 0.000908925
11 *208:94 0.00110353
12 *208:81 0.00232521
13 *208:75 0.00637001
14 *208:48 0.000816732
15 *208:38 0.00114997
16 *208:34 0.000639877
17 *208:30 0.00198864
18 *208:24 0.00160385
19 *208:18 0.000249282
20 *208:14 0.0036382
21 *208:12 0.000675388
22 *1413:A_N *227:34 5.50049e-05
23 *1483:B *209:76 5.67058e-05
24 *1483:B *219:49 2.06208e-05
25 *208:24 *1484:B1 3.17387e-05
26 *208:34 *210:40 0.00106962
27 *208:34 *210:48 0.00026528
28 *208:48 *209:14 0.000393558
29 *208:75 *210:83 0.000293181
30 *208:81 *221:84 0
31 *208:81 *227:14 0.000134269
32 *208:111 *222:24 0.000652318
33 *208:128 *221:84 0.000118261
34 *1413:C *1413:A_N 5.50049e-05
35 *1469:A *208:111 0.000429899
36 *1484:A2 *208:24 1.09903e-05
37 *1577:RESET_B *208:12 0.000100061
38 *1586:D *208:30 0.000523944
39 *21:6 *208:34 0.00254058
40 *47:99 *208:81 2.28878e-05
41 *65:8 *208:111 0.000915092
42 *65:14 *208:94 6.00173e-05
43 *65:14 *208:111 7.5418e-05
44 *66:10 *208:30 0.00217328
45 *88:14 *1483:B 5.50106e-05
46 *94:10 *208:48 0.000462582
47 *95:121 *1486:A2 0
48 *104:22 *208:12 0.000564149
49 *113:8 *208:48 0.000316588
50 *114:16 *208:30 0.000826031
51 *120:40 *208:12 2.13834e-05
52 *120:40 *208:14 0.000158475
53 *120:40 *208:18 2.26406e-05
54 *120:40 *208:75 0.000126701
55 *127:24 *208:75 8.9585e-05
56 *128:18 *208:81 0
57 *136:24 *208:30 0.000222051
58 *137:24 *208:81 0.000257782
59 *139:43 *208:111 0.000230351
60 *141:10 *208:75 0.000118028
61 *141:10 *208:128 0
62 *141:28 *208:111 0.000519696
63 *143:33 *208:12 0.000185221
64 *143:41 *208:14 0
65 *147:48 *1486:A2 9.34648e-05
66 *147:149 *1483:B 0.000175274
67 *147:149 *208:94 0.000249291
68 *156:10 *208:30 0.00223792
69 *175:62 *1483:B 0.000256538
70 *175:62 *208:94 0.000276002
71 *175:62 *208:111 0.000394897
72 *180:10 *1486:A2 4.63601e-05
73 *180:158 *208:111 5.3304e-05
74 *183:39 *208:48 5.3304e-05
75 *190:69 *208:128 2.82105e-05
76 *200:10 *1486:A2 2.52012e-05
77 *200:10 *208:34 0.000418117
78 *200:10 *208:38 7.50592e-05
79 *200:10 *208:48 2.80201e-05
80 *201:12 *208:48 1.94835e-05
81 *202:12 *208:12 4.49877e-05
82 *205:49 *208:14 1.05658e-05
83 *205:49 *208:18 1.05658e-05
84 *205:57 *208:24 0.000141191
*RES
1 *1577:Q *208:12 49.2271 
2 *208:12 *208:14 2.43393 
3 *208:14 *208:18 15.3211 
4 *208:18 *208:24 19.4536 
5 *208:24 *208:30 42.9407 
6 *208:30 *208:34 42.7779 
7 *208:34 *208:38 16.0254 
8 *208:38 *208:48 33.2182 
9 *208:48 *1406:A2 23 
10 *208:38 *1486:A2 44.3075 
11 *208:18 *1484:A1 23 
12 *208:14 *208:75 22.3336 
13 *208:75 *208:81 19.7912 
14 *208:81 *1483:B 42.1118 
15 *208:81 *208:94 5.25107 
16 *208:94 *1413:A_N 38.6214 
17 *208:94 *208:111 42.7779 
18 *208:111 *1481:A 23 
19 *208:75 *208:128 33.146 
20 *208:128 *1487:C 23 
*END

*D_NET *209 0.0323572
*CONN
*I *1484:B1 I *D sky130_fd_sc_hd__a31o_1
*I *1487:B I *D sky130_fd_sc_hd__and4_1
*I *1413:D I *D sky130_fd_sc_hd__and4b_1
*I *1483:A I *D sky130_fd_sc_hd__nand2_1
*I *1486:A1 I *D sky130_fd_sc_hd__a41o_1
*I *1406:A1 I *D sky130_fd_sc_hd__a21o_1
*I *1578:Q O *D sky130_fd_sc_hd__dfrtp_4
*CAP
1 *1484:B1 0.000377019
2 *1487:B 0.000248792
3 *1413:D 0.00067069
4 *1483:A 0
5 *1486:A1 6.69636e-05
6 *1406:A1 0
7 *1578:Q 0
8 *209:85 0.00125204
9 *209:76 0.000729061
10 *209:70 0.00234407
11 *209:60 0.00165947
12 *209:58 0.00225443
13 *209:56 0.00225443
14 *209:54 0.000845665
15 *209:31 0.00145403
16 *209:14 0.000650915
17 *209:4 0.00119231
18 *1413:D *227:26 5.35809e-05
19 *1413:D *227:34 2.02297e-05
20 *1486:A1 *210:61 5.50049e-05
21 *209:31 *210:61 2.71291e-05
22 *209:54 *1437:B1 0
23 *209:54 *210:61 9.84851e-05
24 *209:54 *221:14 0.000631709
25 *209:58 *1441:A 0.00049366
26 *209:58 *210:20 0.000536829
27 *209:58 *218:8 0.000652695
28 *209:58 *218:18 0
29 *209:58 *223:31 0.00112553
30 *209:70 *218:22 0.000569113
31 *209:85 *225:67 0.000110292
32 an[3] *209:54 0.00014196
33 an[4] *209:54 1.01436e-05
34 *1413:C *1413:D 0.000592409
35 *1430:A_N *209:31 0.000265741
36 *1437:A2 *1486:A1 2.18506e-05
37 *1437:A2 *209:31 0.000488598
38 *1437:A2 *209:54 0.000346196
39 *1464:B1 *209:70 9.84794e-05
40 *1483:B *209:76 5.67058e-05
41 *1484:A2 *1484:B1 0.000357203
42 *1484:A2 *209:70 5.3304e-05
43 *1484:A3 *209:70 2.19845e-05
44 *1566:RESET_B *209:58 0
45 *1567:RESET_B *209:58 0
46 *1586:RESET_B *209:58 0.000232145
47 *1591:RESET_B *209:58 0.00033404
48 *1599:A *1413:D 9.41704e-05
49 *31:8 *1413:D 0.000520311
50 *31:8 *1487:B 5.3304e-05
51 *31:14 *209:70 0.00100479
52 *31:14 *209:85 0.000705017
53 *66:20 *209:58 0
54 *88:14 *209:76 0.000555474
55 *94:10 *209:14 0.000187363
56 *97:30 *209:70 0.000744215
57 *100:10 *209:58 0.000116869
58 *105:92 *209:14 0
59 *105:92 *209:31 0.00026287
60 *106:41 *209:70 0.000170729
61 *106:49 *1413:D 0.000135037
62 *109:32 *1413:D 2.36949e-05
63 *119:10 *209:58 0
64 *119:10 *209:70 0.000176851
65 *125:12 *209:70 0.000545573
66 *125:12 *209:85 0.000133985
67 *134:22 *209:76 0.000719534
68 *147:48 *1486:A1 5.15762e-05
69 *147:48 *209:31 4.18957e-05
70 *152:8 *209:76 1.24376e-05
71 *154:8 *209:54 3.58084e-06
72 *154:12 *209:54 0.000314157
73 *155:8 *1413:D 7.24899e-05
74 *155:8 *1487:B 5.01499e-05
75 *155:74 *1487:B 4.29836e-05
76 *183:28 *209:14 0
77 *187:81 *209:58 0
78 *190:103 *209:58 0.000388479
79 *190:109 *209:58 0
80 *201:12 *209:14 2.81066e-05
81 *203:45 *209:76 0.000178517
82 *204:38 *209:70 0.000176808
83 *207:44 *209:31 0.00012377
84 *207:76 *209:58 3.47781e-05
85 *207:122 *1413:D 5.56356e-05
86 *207:135 *1413:D 0.000811817
87 *208:24 *1484:B1 3.17387e-05
88 *208:48 *209:14 0.000393558
*RES
1 *1578:Q *209:4 23 
2 *209:4 *209:14 42.6979 
3 *209:14 *1406:A1 23 
4 *209:4 *209:31 43.8993 
5 *209:31 *1486:A1 24.595 
6 *209:31 *209:54 48.4564 
7 *209:54 *209:56 15 
8 *209:56 *209:58 49.0929 
9 *209:58 *209:60 15 
10 *209:60 *209:70 48.0186 
11 *209:70 *209:76 30.4114 
12 *209:76 *1483:A 23 
13 *209:70 *209:85 24.6529 
14 *209:85 *1413:D 42.9945 
15 *209:85 *1487:B 27.4329 
16 *209:60 *1484:B1 28.7586 
*END

*D_NET *210 0.0287036
*CONN
*I *1487:A I *D sky130_fd_sc_hd__and4_1
*I *1412:A_N I *D sky130_fd_sc_hd__and4b_1
*I *1486:B1 I *D sky130_fd_sc_hd__a41o_1
*I *1406:B1 I *D sky130_fd_sc_hd__a21o_1
*I *1579:Q O *D sky130_fd_sc_hd__dfrtp_2
*CAP
1 *1487:A 4.25118e-05
2 *1412:A_N 0
3 *1486:B1 0
4 *1406:B1 0
5 *1579:Q 0.000239364
6 *210:83 0.00111075
7 *210:74 0.000189959
8 *210:61 0.000324448
9 *210:48 0.000747575
10 *210:40 0.00128955
11 *210:36 0.0013191
12 *210:32 0.00162222
13 *210:22 0.000710616
14 *210:20 0.00134632
15 *210:14 0.00426601
16 *210:10 0.00209082
17 *210:14 *211:6 0.000425808
18 *210:14 *211:79 8.27026e-05
19 *210:20 *225:30 6.61999e-05
20 *210:20 *225:43 0
21 *210:32 *218:22 5.80184e-05
22 *210:32 *227:69 0.000169744
23 *210:36 *212:77 3.21327e-05
24 *210:74 *225:43 2.2324e-05
25 *1412:B *210:32 2.42245e-05
26 *1437:A2 *210:61 0.000139352
27 *1486:A1 *210:61 5.50049e-05
28 *1563:RESET_B *210:20 0.000598562
29 *1563:RESET_B *210:83 0
30 *1564:RESET_B *210:10 8.62783e-05
31 *1591:CLK *210:32 0.000224414
32 *1591:D *210:32 0.000226907
33 *1606:A *210:14 8.04e-05
34 *21:6 *210:48 0.000639073
35 *31:14 *210:14 6.96783e-05
36 *57:14 *210:10 0.000123693
37 *80:10 *210:32 8.25811e-05
38 *87:10 *210:36 0
39 *90:8 *210:83 0
40 *98:24 *210:10 2.76611e-06
41 *100:10 *210:20 6.58018e-05
42 *106:10 *210:36 0.00141601
43 *110:26 *210:48 0.00021445
44 *119:10 *210:36 0.000186259
45 *120:26 *210:14 1.10105e-05
46 *120:38 *210:20 0
47 *141:10 *210:20 0
48 *141:10 *210:83 0.00168153
49 *147:48 *210:61 0.000320365
50 *155:34 *210:36 0
51 *155:74 *1487:A 9.93794e-05
52 *180:33 *210:14 0.000179473
53 *180:33 *210:20 0.000273494
54 *180:54 *210:14 4.38068e-06
55 *183:22 *210:48 5.83905e-05
56 *183:28 *210:48 6.35755e-05
57 *187:69 *210:32 4.26455e-05
58 *189:80 *210:36 0.000438509
59 *189:88 *210:36 0.00136708
60 *190:67 *210:83 0
61 *190:69 *210:83 0
62 *196:43 *210:14 0.000157011
63 *200:10 *210:40 0.000584486
64 *200:10 *210:48 0.000117078
65 *201:18 *210:32 2.45549e-06
66 *204:10 *210:32 0.000273998
67 *205:26 *210:74 9.92279e-05
68 *205:30 *210:20 4.37036e-05
69 *205:30 *210:74 1.40183e-05
70 *205:49 *210:20 8.53902e-05
71 *206:57 *210:32 1.92239e-05
72 *206:57 *210:74 2.87504e-05
73 *207:76 *210:20 5.62433e-05
74 *208:34 *210:40 0.00106962
75 *208:34 *210:48 0.00026528
76 *208:75 *210:83 0.000293181
77 *209:31 *210:61 2.71291e-05
78 *209:54 *210:61 9.84851e-05
79 *209:58 *210:20 0.000536829
*RES
1 *1579:Q *210:10 41.7286 
2 *210:10 *210:14 38.49 
3 *210:14 *210:20 40.6857 
4 *210:20 *210:22 15 
5 *210:22 *210:32 40.4814 
6 *210:32 *210:36 45.4293 
7 *210:36 *210:40 26.5793 
8 *210:40 *210:48 48.8293 
9 *210:48 *1406:B1 23 
10 *210:40 *210:61 37.7057 
11 *210:61 *1486:B1 23 
12 *210:22 *210:74 32.9 
13 *210:74 *1412:A_N 23 
14 *210:14 *210:83 38.0343 
15 *210:83 *1487:A 39.0979 
*END

*D_NET *211 0.0504196
*CONN
*I *1429:A2 I *D sky130_fd_sc_hd__a31o_1
*I *1407:C I *D sky130_fd_sc_hd__and4_2
*I *1426:A1 I *D sky130_fd_sc_hd__a21o_1
*I *1422:A I *D sky130_fd_sc_hd__or2_1
*I *1421:A I *D sky130_fd_sc_hd__nand2_1
*I *1425:B I *D sky130_fd_sc_hd__nand3_1
*I *1561:Q O *D sky130_fd_sc_hd__dfrtp_4
*CAP
1 *1429:A2 0
2 *1407:C 5.80801e-05
3 *1426:A1 0.000309826
4 *1422:A 0.000422604
5 *1421:A 0
6 *1425:B 0
7 *1561:Q 0.000301896
8 *211:114 0.000631433
9 *211:108 0.0023663
10 *211:100 0.00179295
11 *211:87 0.00151599
12 *211:79 0.00326868
13 *211:49 2.70399e-05
14 *211:43 0.000993836
15 *211:32 0.00101317
16 *211:28 0.00111971
17 *211:22 0.00166633
18 *211:18 0.00320879
19 *211:12 0.00151758
20 *211:6 0.00277718
21 *1407:C *1407:B 5.3304e-05
22 *1426:A1 *1426:B1 0.000356931
23 *1426:A1 *219:8 3.46993e-05
24 *211:32 *219:55 0.00152697
25 *211:32 *222:68 4.94931e-05
26 *211:32 *223:43 0.000224414
27 *211:87 *219:8 0.000998466
28 *211:108 *1429:A1 9.67908e-05
29 *211:108 *219:23 0.00362632
30 *1422:B *1422:A 0.000128497
31 *1459:C *1407:C 2.02872e-05
32 *1462:C *211:108 1.18389e-05
33 *1564:RESET_B *211:79 2.31116e-05
34 *1579:RESET_B *211:87 0.00115526
35 *1606:A *211:6 0.000808141
36 *1606:A *211:79 0.000175903
37 *20:10 *211:87 0.00014382
38 *25:10 *211:87 0.00123362
39 *72:10 *211:12 0.00100889
40 *72:10 *211:18 0.000788922
41 *72:10 *211:43 0.000709858
42 *75:8 *211:18 0.0002429
43 *87:68 *211:43 0.000162407
44 *94:10 *211:108 2.06777e-05
45 *98:24 *211:79 4.35681e-06
46 *115:36 *211:108 0.000742784
47 *120:60 *211:18 0.00181811
48 *120:60 *211:43 0.000155907
49 *121:10 *211:32 0.000351309
50 *130:24 *211:79 1.08929e-05
51 *139:33 *211:22 9.7231e-05
52 *147:168 *211:43 9.53718e-05
53 *161:24 *211:79 0
54 *178:14 *211:22 0.00188279
55 *180:10 *211:114 0.00139357
56 *190:75 *211:28 0.000133112
57 *191:8 *211:49 3.20914e-05
58 *191:24 *211:18 0.000111929
59 *199:30 *211:43 0.000270682
60 *200:23 *1407:C 5.3304e-05
61 *200:23 *211:114 0.00139672
62 *200:47 *1426:A1 0
63 *200:47 *211:87 0
64 *200:100 *1422:A 0.000435371
65 *200:100 *211:18 0.000135037
66 *200:106 *211:43 0.000351151
67 *200:106 *211:49 4.21594e-06
68 *200:131 *211:32 0.00282701
69 *201:61 *211:12 0.00101522
70 *210:14 *211:6 0.000425808
71 *210:14 *211:79 8.27026e-05
*RES
1 *1561:Q *211:6 32.1971 
2 *211:6 *211:12 43.8786 
3 *211:12 *211:18 40.665 
4 *211:18 *211:22 38.0136 
5 *211:22 *211:28 31.9057 
6 *211:28 *211:32 33.0393 
7 *211:32 *1425:B 23 
8 *211:18 *211:43 40.3336 
9 *211:43 *211:49 30.8493 
10 *211:49 *1421:A 23 
11 *211:12 *1422:A 30.2914 
12 *211:6 *211:79 45.5606 
13 *211:79 *211:87 42.8932 
14 *211:87 *1426:A1 44.1729 
15 *211:87 *211:100 15 
16 *211:100 *211:108 45.5921 
17 *211:108 *211:114 49.1607 
18 *211:114 *1407:C 24.0979 
19 *211:108 *1429:A2 23 
*END

*D_NET *212 0.0362863
*CONN
*I *1493:A I *D sky130_fd_sc_hd__nand2_1
*I *1415:C I *D sky130_fd_sc_hd__and4_1
*I *1497:A I *D sky130_fd_sc_hd__and4_1
*I *1492:A I *D sky130_fd_sc_hd__or2_1
*I *1580:Q O *D sky130_fd_sc_hd__dfrtp_2
*CAP
1 *1493:A 2.34823e-05
2 *1415:C 0
3 *1497:A 0
4 *1492:A 0
5 *1580:Q 0.000482915
6 *212:77 0.00198422
7 *212:71 0.00301662
8 *212:63 0.00221865
9 *212:61 0.00145781
10 *212:52 0.00079453
11 *212:38 0.00149923
12 *212:30 0.00228094
13 *212:24 0.00193204
14 *212:14 0.00112396
15 *212:8 0.00149916
16 *212:30 *1403:A1 0.000135037
17 *212:38 *216:24 0.000431661
18 *212:61 *216:35 9.66585e-05
19 *212:63 *1415:B 1.14452e-05
20 *212:71 *1415:B 0.000421419
21 *212:71 *214:10 0.00122889
22 *212:71 *227:99 0
23 *212:77 *1510:A 0.000267161
24 *212:77 *217:14 0.00242042
25 *1403:B1 *212:30 0.000398978
26 *1507:B *212:38 0.000144169
27 *1507:C *212:52 5.88615e-05
28 *1507:C *212:61 1.90755e-05
29 *1511:C *212:71 0.000286281
30 *47:105 *212:14 0
31 *70:10 *212:63 0.00288027
32 *70:10 *212:71 0.00169845
33 *74:22 *212:63 0.00026427
34 *74:22 *212:71 0.000268368
35 *86:16 *212:14 0.00137566
36 *86:16 *212:24 0
37 *87:10 *212:77 5.21127e-05
38 *87:34 *212:14 0.0002778
39 *87:34 *212:30 8.93567e-05
40 *87:42 *212:30 0.000277849
41 *96:10 *212:63 0.00100527
42 *103:35 *212:14 0
43 *103:35 *212:24 8.48189e-05
44 *109:8 *212:63 0.000759227
45 *121:10 *212:14 0
46 *122:32 *212:14 2.12347e-06
47 *124:14 *212:14 0
48 *148:20 *212:52 0.000163102
49 *155:49 *212:14 7.12981e-05
50 *156:23 *212:61 5.25144e-05
51 *156:37 *212:38 1.07299e-05
52 *156:37 *212:52 0.000193701
53 *159:16 *212:71 0
54 *160:8 *212:30 0.000297471
55 *160:8 *212:38 1.24376e-05
56 *160:10 *212:63 0
57 *160:16 *212:71 0.000138345
58 *161:10 *212:71 1.43557e-05
59 *167:22 *212:14 0.00026597
60 *170:8 *212:52 5.3304e-05
61 *170:73 *212:38 0
62 *179:130 *212:8 0.000332763
63 *187:8 *212:52 0.00023353
64 *187:14 *212:38 1.9664e-05
65 *187:130 *212:24 3.28708e-05
66 *187:130 *212:30 0.000644998
67 *188:101 *212:14 0.000447924
68 *207:30 *212:71 0
69 *210:36 *212:77 3.21327e-05
*RES
1 *1580:Q *212:8 44.815 
2 *212:8 *212:14 39.2771 
3 *212:14 *212:24 32.0818 
4 *212:24 *212:30 27.2289 
5 *212:30 *212:38 38.1821 
6 *212:38 *212:52 44.1479 
7 *212:52 *1492:A 23 
8 *212:38 *212:61 18.48 
9 *212:61 *212:63 39.2329 
10 *212:63 *212:71 48.3086 
11 *212:71 *212:77 46.2371 
12 *212:77 *1497:A 38 
13 *212:63 *1415:C 38 
14 *212:30 *1493:A 23.4971 
*END

*D_NET *213 0.0327414
*CONN
*I *1415:D I *D sky130_fd_sc_hd__and4_1
*I *1497:B I *D sky130_fd_sc_hd__and4_1
*I *1496:A I *D sky130_fd_sc_hd__inv_2
*I *1581:Q O *D sky130_fd_sc_hd__dfrtp_2
*CAP
1 *1415:D 0
2 *1497:B 0.000415699
3 *1496:A 0
4 *1581:Q 3.98109e-05
5 *213:94 0.000596452
6 *213:77 0.00208717
7 *213:61 0.00275207
8 *213:45 0.00123045
9 *213:33 0.00296705
10 *213:31 0.00250992
11 *213:22 0.000338299
12 *213:14 0.00150664
13 *213:6 0.00149733
14 *213:33 *221:84 0.000536594
15 *213:33 *222:10 0
16 *213:33 *222:24 0
17 *213:33 *224:26 0.00041245
18 *213:94 *1415:A 0.000303773
19 *1394:B *213:33 0.00053353
20 *1409:B *213:94 1.09903e-05
21 *1497:C *1497:B 0.000689964
22 *1497:D *1497:B 2.02872e-05
23 *1500:B *213:77 0.000124482
24 *1565:CLK *213:22 0
25 *1571:RESET_B *213:45 0.00013774
26 *23:16 *213:33 0
27 *36:16 *213:33 0.0001389
28 *39:8 *1497:B 0.00130751
29 *39:14 *1497:B 8.27026e-05
30 *41:14 *213:61 0.000311537
31 *57:20 *213:33 4.68153e-05
32 *57:20 *213:45 9.66649e-06
33 *74:22 *1497:B 0.000115782
34 *83:12 *213:45 0.000485844
35 *85:10 *213:33 0.000213463
36 *88:24 *213:33 0.000186206
37 *95:16 *213:77 0.000490667
38 *95:70 *213:77 0.00013598
39 *95:70 *213:94 0.000224321
40 *95:121 *213:77 0.000967138
41 *96:14 *213:94 0.000451882
42 *96:27 *213:94 0.000101216
43 *97:22 *213:45 3.42349e-05
44 *101:12 *213:14 5.16731e-05
45 *101:12 *213:33 0
46 *103:6 *213:94 6.68286e-05
47 *103:35 *213:22 9.28078e-06
48 *105:110 *213:61 0.000161405
49 *115:54 *1497:B 0.000203953
50 *129:103 *213:31 0.000360771
51 *129:111 *213:6 5.79559e-05
52 *129:111 *213:31 4.21048e-05
53 *133:28 *213:33 0
54 *133:28 *213:45 0.000296886
55 *133:28 *213:77 0.000333795
56 *147:34 *1497:B 0.000139982
57 *163:26 *213:77 0.000142969
58 *175:62 *213:33 0.00121154
59 *175:81 *213:33 0.000914096
60 *176:37 *213:33 0.000292865
61 *179:18 *213:33 0.000872429
62 *179:24 *213:33 0.000138145
63 *179:106 *213:22 2.70134e-05
64 *183:64 *213:61 0
65 *183:64 *213:77 7.60871e-06
66 *185:12 *213:22 0.000446275
67 *187:46 *213:61 0.000397338
68 *187:46 *213:77 5.31444e-05
69 *188:158 *213:77 3.99784e-05
70 *190:61 *213:33 0.000113949
71 *191:68 *213:33 8.93979e-06
72 *193:14 *213:77 0
73 *194:8 *213:33 7.19844e-05
74 *199:24 *213:14 0.00109717
75 *199:24 *213:22 0.00044458
76 *199:30 *213:22 0.000243083
77 *207:112 *213:33 0.000118601
78 *207:122 *213:33 0.000360508
*RES
1 *1581:Q *213:6 23.6214 
2 *213:6 *213:14 48.3114 
3 *213:14 *213:22 40.875 
4 *213:22 *1496:A 23 
5 *213:6 *213:31 19.4329 
6 *213:31 *213:33 57.7204 
7 *213:33 *213:45 44.5311 
8 *213:45 *213:61 41.1443 
9 *213:61 *213:77 49.51 
10 *213:77 *1497:B 39.8407 
11 *213:61 *213:94 27.2214 
12 *213:94 *1415:D 23 
*END

*D_NET *214 0.0191936
*CONN
*I *1415:B I *D sky130_fd_sc_hd__and4_1
*I *1499:A I *D sky130_fd_sc_hd__or2_1
*I *1500:A I *D sky130_fd_sc_hd__nand2_2
*I *1582:Q O *D sky130_fd_sc_hd__dfrtp_1
*CAP
1 *1415:B 0.000171659
2 *1499:A 0.00175181
3 *1500:A 0
4 *1582:Q 0.000277899
5 *214:37 0.00226596
6 *214:31 0.00130845
7 *214:16 0.00137549
8 *214:10 0.00121477
9 *214:8 0.000739823
10 *1499:A *1417:B1_N 5.27453e-05
11 *214:31 *227:112 9.73225e-05
12 *214:37 *1417:B1_N 0.000207606
13 *214:37 *220:6 0.00105677
14 *1401:B1 *214:31 5.3304e-05
15 *1499:B *1499:A 8.12496e-05
16 *23:22 *1499:A 3.56355e-05
17 *40:12 *1499:A 0.000906927
18 *74:22 *214:10 0.000187416
19 *83:12 *214:31 0.0012476
20 *91:8 *214:16 0.000322088
21 *91:8 *214:31 4.93812e-05
22 *93:49 *214:31 0.000108164
23 *104:26 *214:37 0.000770455
24 *160:10 *1415:B 0.000137391
25 *160:10 *214:10 0.000112826
26 *160:16 *214:10 0.000254326
27 *165:10 *214:31 0.000153015
28 *170:37 *214:8 0.000199449
29 *187:61 *214:31 0.000311529
30 *188:32 *214:16 0.000481185
31 *188:32 *214:31 4.35738e-05
32 *190:31 *214:31 0.00124531
33 *203:14 *1499:A 0.000310746
34 *212:63 *1415:B 1.14452e-05
35 *212:71 *1415:B 0.000421419
36 *212:71 *214:10 0.00122889
*RES
1 *1582:Q *214:8 43.8621 
2 *214:8 *214:10 16.3436 
3 *214:10 *214:16 26.6 
4 *214:16 *1500:A 23 
5 *214:16 *214:31 39.0286 
6 *214:31 *214:37 28.9821 
7 *214:37 *1499:A 46.0343 
8 *214:10 *1415:B 43.7793 
*END

*D_NET *215 0.0124073
*CONN
*I *1503:A I *D sky130_fd_sc_hd__inv_2
*I *1415:A I *D sky130_fd_sc_hd__and4_1
*I *1583:Q O *D sky130_fd_sc_hd__dfrtp_1
*CAP
1 *1503:A 0
2 *1415:A 0.000209604
3 *1583:Q 0
4 *215:29 0.000514549
5 *215:14 0.00113497
6 *215:12 0.00190167
7 *215:4 0.00149086
8 *1515:A *215:12 0.00066643
9 *33:8 *215:14 0.000323317
10 *33:8 *215:29 1.02561e-05
11 *47:189 *215:14 3.1493e-05
12 *48:14 *215:12 0.000305633
13 *97:8 *215:29 0.00053263
14 *97:44 *215:29 0.000234263
15 *105:12 *215:29 0.000132632
16 *162:24 *215:14 8.22421e-06
17 *162:24 *215:29 0.000102921
18 *163:26 *215:14 0.000163044
19 *175:8 *215:12 1.59071e-05
20 *188:32 *215:29 2.17918e-05
21 *189:72 *215:12 0.000442442
22 *189:80 *215:12 0.00202836
23 *201:14 *215:14 0.000837525
24 *201:105 *215:14 0.000139657
25 *201:105 *215:29 0.000855357
26 *213:94 *1415:A 0.000303773
*RES
1 *1583:Q *215:4 23 
2 *215:4 *215:12 49.9657 
3 *215:12 *215:14 13.1743 
4 *215:14 *1415:A 41.48 
5 *215:14 *215:29 29.7693 
6 *215:29 *1503:A 23 
*END

*D_NET *216 0.0347724
*CONN
*I *1416:C1 I *D sky130_fd_sc_hd__o211ai_2
*I *1506:B1 I *D sky130_fd_sc_hd__a21oi_1
*I *1507:A I *D sky130_fd_sc_hd__and3_2
*I *1584:Q O *D sky130_fd_sc_hd__dfrtp_4
*CAP
1 *1416:C1 0
2 *1506:B1 0
3 *1507:A 0
4 *1584:Q 0.000120493
5 *216:58 0.000194173
6 *216:52 0.00349269
7 *216:41 0.00367174
8 *216:39 0.00140381
9 *216:35 0.0010773
10 *216:26 4.67094e-05
11 *216:24 0.00209488
12 *216:22 0.00327756
13 *216:18 0.00129591
14 *216:12 0.00138701
15 *216:8 0.00139427
16 *216:22 *222:8 0.000292701
17 *1493:B *216:24 0.000394157
18 *1506:A1 *216:52 5.3304e-05
19 *1506:A2 *216:41 0.000265521
20 *1506:A2 *216:52 0.000135037
21 *1507:C *216:35 1.21972e-05
22 *1534:A *216:22 0.00236571
23 *1565:CLK *216:18 8.62783e-05
24 *1565:CLK *216:22 2.64616e-05
25 *1565:RESET_B *216:22 9.37053e-05
26 *1584:D *216:22 0.000158028
27 *11:13 *216:24 0
28 *40:12 *216:58 5.30949e-05
29 *41:14 *216:52 0.00363086
30 *43:10 *216:8 0
31 *70:10 *216:39 0.000463737
32 *80:18 *216:39 0.00238167
33 *107:24 *216:22 0.00045068
34 *107:24 *216:39 2.46922e-05
35 *123:12 *216:18 0
36 *130:24 *216:58 0.000448723
37 *156:23 *216:35 2.64616e-05
38 *156:37 *216:24 6.43792e-05
39 *156:37 *216:39 9.92927e-05
40 *157:12 *216:58 0.00016124
41 *169:6 *216:41 7.15459e-05
42 *170:73 *216:24 0
43 *181:10 *216:24 0
44 *181:16 *216:24 1.23467e-05
45 *181:18 *216:24 0.000278427
46 *181:18 *216:39 0.000392497
47 *181:22 *216:39 0.000253061
48 *191:8 *216:8 0
49 *196:31 *216:39 0.000300463
50 *199:30 *216:12 0.00141338
51 *206:26 *216:58 0.00037786
52 *212:38 *216:24 0.000431661
53 *212:61 *216:35 9.66585e-05
*RES
1 *1584:Q *216:8 39.9057 
2 *216:8 *216:12 35.6314 
3 *216:12 *216:18 31.9057 
4 *216:18 *216:22 48.495 
5 *216:22 *216:24 42.7543 
6 *216:24 *216:26 15 
7 *216:26 *1507:A 23 
8 *216:26 *216:35 16.0979 
9 *216:35 *216:39 48.9507 
10 *216:39 *216:41 6.33857 
11 *216:41 *1506:B1 23 
12 *216:41 *216:52 45.5714 
13 *216:52 *216:58 37.54 
14 *216:58 *1416:C1 23 
*END

*D_NET *217 0.0355025
*CONN
*I *1509:A I *D sky130_fd_sc_hd__or2_1
*I *1514:A2 I *D sky130_fd_sc_hd__o211a_1
*I *1405:A I *D sky130_fd_sc_hd__inv_2
*I *1510:A I *D sky130_fd_sc_hd__nand2_1
*I *1585:Q O *D sky130_fd_sc_hd__dfrtp_4
*CAP
1 *1509:A 6.47504e-05
2 *1514:A2 0
3 *1405:A 3.3418e-05
4 *1510:A 0.000309934
5 *1585:Q 0.000785456
6 *217:59 0.00101056
7 *217:50 0.000187236
8 *217:31 0.00156024
9 *217:29 0.00266472
10 *217:25 0.0011379
11 *217:14 0.00215196
12 *217:12 0.00233742
13 *217:10 0.00203943
14 *1405:A *221:94 9.65021e-05
15 *217:14 *1601:A 0.000706235
16 *217:14 *218:18 0.000265472
17 *1558:A *217:59 0.000152331
18 *1562:RESET_B *217:59 0.000170036
19 *1585:CLK *217:10 9.67842e-05
20 *1585:D *217:10 5.97104e-05
21 *1585:RESET_B *217:10 0.000108143
22 *1585:RESET_B *217:12 0.000127036
23 *1585:RESET_B *217:14 0.000249776
24 *34:18 *217:31 0.000269316
25 *34:26 *217:29 0.000109835
26 *34:26 *217:31 0.00105105
27 *37:10 *217:59 0
28 *71:6 *1509:A 2.64616e-05
29 *88:30 *217:31 0.000515025
30 *96:10 *217:31 0
31 *105:127 *217:59 0.000368415
32 *108:26 *217:31 4.82774e-05
33 *112:8 *217:29 0.000187446
34 *115:52 *217:50 1.14154e-05
35 *115:54 *217:50 2.81066e-05
36 *125:18 *217:31 1.29848e-05
37 *147:57 *1510:A 0.000401854
38 *147:57 *217:14 0.000526656
39 *149:23 *217:31 0.00215845
40 *154:14 *217:50 1.12487e-05
41 *157:12 *217:50 4.90891e-05
42 *160:10 *217:31 9.59596e-05
43 *161:24 *217:59 0.000175001
44 *162:24 *217:29 0.000234154
45 *162:24 *217:31 0.000102679
46 *170:53 *217:59 0.00128483
47 *172:8 *1510:A 0.000744485
48 *175:66 *1405:A 9.65021e-05
49 *183:16 *217:29 0.000872029
50 *183:22 *217:29 0.000783853
51 *184:14 *217:59 0
52 *184:24 *217:10 0.000215671
53 *184:24 *217:12 0.00014196
54 *184:24 *217:59 7.14995e-05
55 *185:18 *217:31 0.00139325
56 *187:20 *217:31 0.00013485
57 *190:41 *217:31 0.000649752
58 *192:10 *217:12 5.50106e-05
59 *192:10 *217:14 0.000356724
60 *192:10 *217:50 0.000139647
61 *201:14 *217:29 0.000322597
62 *201:105 *217:29 0.000315533
63 *201:105 *217:31 2.66481e-05
64 *207:30 *217:29 0.00251163
65 *212:77 *1510:A 0.000267161
66 *212:77 *217:14 0.00242042
*RES
1 *1585:Q *217:10 37.6036 
2 *217:10 *217:12 6.33857 
3 *217:12 *217:14 47.7879 
4 *217:14 *1510:A 35.4286 
5 *217:14 *217:25 15 
6 *217:25 *217:29 40.6104 
7 *217:29 *217:31 49.7454 
8 *217:31 *1405:A 39.0979 
9 *217:12 *217:50 33.8529 
10 *217:50 *1514:A2 23 
11 *217:10 *217:59 39.795 
12 *217:59 *1509:A 39.1186 
*END

*D_NET *218 0.0158707
*CONN
*I *1601:A I *D sky130_fd_sc_hd__dlygate4sd3_1
*I *1417:B1_N I *D sky130_fd_sc_hd__a21bo_2
*I *1586:Q O *D sky130_fd_sc_hd__dfrtp_1
*CAP
1 *1601:A 0.000155011
2 *1417:B1_N 0.000930111
3 *1586:Q 0.000404889
4 *218:22 0.00174045
5 *218:18 0.00188907
6 *218:10 0.00123374
7 *218:8 0.000404889
8 *218:18 *1441:A 0
9 *218:22 *227:69 0.000172114
10 *1489:A *1601:A 0.000357953
11 *1499:A *1417:B1_N 5.27453e-05
12 *1585:RESET_B *1601:A 0.000185724
13 *1585:RESET_B *218:18 0.000144221
14 *1586:RESET_B *218:18 0.000111198
15 *23:22 *1417:B1_N 0.000909207
16 *66:20 *218:8 0
17 *80:10 *218:22 0.000123223
18 *104:26 *1417:B1_N 0.00124754
19 *119:10 *218:18 0.000227794
20 *119:10 *218:22 0.00161168
21 *173:12 *218:18 0.0011674
22 *187:69 *218:18 0.000170904
23 *187:69 *218:22 0
24 *201:30 *218:22 7.95668e-05
25 *204:10 *218:22 1.32435e-05
26 *204:21 *218:22 7.38724e-05
27 *204:38 *218:22 4.99753e-06
28 *209:58 *218:8 0.000652695
29 *209:58 *218:18 0
30 *209:70 *218:22 0.000569113
31 *210:32 *218:22 5.80184e-05
32 *214:37 *1417:B1_N 0.000207606
33 *217:14 *1601:A 0.000706235
34 *217:14 *218:18 0.000265472
*RES
1 *1586:Q *218:8 46.9486 
2 *218:8 *218:10 15 
3 *218:10 *218:18 41.4832 
4 *218:18 *218:22 37.5061 
5 *218:22 *1417:B1_N 46.3554 
6 *218:10 *1601:A 30.7679 
*END

*D_NET *219 0.0329759
*CONN
*I *1425:A I *D sky130_fd_sc_hd__nand3_1
*I *1407:B I *D sky130_fd_sc_hd__and4_2
*I *1429:A1 I *D sky130_fd_sc_hd__a31o_1
*I *1426:B1 I *D sky130_fd_sc_hd__a21o_1
*I *1562:Q O *D sky130_fd_sc_hd__dfrtp_4
*CAP
1 *1425:A 0
2 *1407:B 0.000229932
3 *1429:A1 5.83794e-05
4 *1426:B1 0.000236886
5 *1562:Q 0
6 *219:55 0.000796852
7 *219:49 0.00321424
8 *219:47 0.0025016
9 *219:34 0.00110657
10 *219:23 0.0023789
11 *219:21 0.0015281
12 *219:8 0.000634362
13 *219:6 0.000397476
14 *219:34 *220:18 0.000281479
15 *219:47 *220:18 1.18379e-05
16 *219:49 *222:24 0.000178202
17 *219:55 *222:68 1.34995e-05
18 *1407:C *1407:B 5.3304e-05
19 *1426:A1 *1426:B1 0.000356931
20 *1426:A1 *219:8 3.46993e-05
21 *1459:C *1407:B 8.48502e-06
22 *1462:B *219:23 7.95762e-05
23 *1483:B *219:49 2.06208e-05
24 *20:10 *1426:B1 0.000117106
25 *20:10 *219:8 0.000504242
26 *65:14 *219:49 0.00123176
27 *67:8 *1407:B 0.000100477
28 *89:16 *219:49 0
29 *92:18 *219:49 0.000115299
30 *94:10 *1429:A1 0.000186041
31 *94:10 *219:23 0.000667788
32 *110:8 *219:55 0.000224315
33 *137:24 *219:34 0.000149785
34 *138:10 *219:49 0.00401848
35 *147:26 *219:34 0.000954308
36 *147:26 *219:47 0.000153979
37 *147:26 *219:49 0.000633116
38 *147:34 *219:34 0.000125595
39 *147:48 *219:34 9.35616e-05
40 *147:149 *219:49 6.95721e-05
41 *175:18 *219:49 0.000107959
42 *175:43 *219:49 0
43 *175:62 *219:49 0
44 *179:18 *219:49 0
45 *180:14 *1407:B 2.64616e-05
46 *180:27 *1407:B 1.57659e-05
47 *180:27 *219:47 5.5198e-05
48 *180:29 *219:47 2.22077e-05
49 *180:29 *219:49 0.00255691
50 *180:123 *219:49 0.000463213
51 *207:68 *219:49 1.22906e-05
52 *211:32 *219:55 0.00152697
53 *211:87 *219:8 0.000998466
54 *211:108 *1429:A1 9.67908e-05
55 *211:108 *219:23 0.00362632
*RES
1 *1562:Q *219:6 38 
2 *219:6 *219:8 13.8786 
3 *219:8 *1426:B1 44.0486 
4 *219:8 *219:21 15 
5 *219:21 *219:23 41.5943 
6 *219:23 *1429:A1 25.0507 
7 *219:23 *219:34 34.1607 
8 *219:34 *1407:B 41.0036 
9 *219:34 *219:47 2.70321 
10 *219:47 *219:49 74.6232 
11 *219:49 *219:55 32.6693 
12 *219:55 *1425:A 23 
*END

*D_NET *220 0.0116924
*CONN
*I *1407:A I *D sky130_fd_sc_hd__and4_2
*I *1429:B1 I *D sky130_fd_sc_hd__a31o_1
*I *1563:Q O *D sky130_fd_sc_hd__dfrtp_1
*CAP
1 *1407:A 0
2 *1429:B1 0
3 *1563:Q 0.000905764
4 *220:18 0.000738529
5 *220:10 0.00157512
6 *220:6 0.00174235
7 *1515:A *220:10 0.000267248
8 *92:18 *220:10 0.00119542
9 *93:49 *220:10 4.12315e-05
10 *93:49 *220:18 7.17358e-06
11 *147:34 *220:18 0.000256542
12 *147:48 *220:18 0.000166522
13 *175:18 *220:10 0.000102381
14 *180:10 *220:18 0.00142106
15 *180:27 *220:18 1.60949e-05
16 *180:29 *220:10 0.000361789
17 *180:29 *220:18 1.76559e-05
18 *190:31 *220:10 0.00152739
19 *214:37 *220:6 0.00105677
20 *219:34 *220:18 0.000281479
21 *219:47 *220:18 1.18379e-05
*RES
1 *1563:Q *220:6 35.0557 
2 *220:6 *220:10 41.9079 
3 *220:10 *220:18 35.9836 
4 *220:18 *1429:B1 23 
5 *220:10 *1407:A 38 
*END

*D_NET *221 0.0406515
*CONN
*I *1434:A I *D sky130_fd_sc_hd__or2_1
*I *1433:A I *D sky130_fd_sc_hd__nand2_1
*I *1408:D I *D sky130_fd_sc_hd__and4_1
*I *1438:B I *D sky130_fd_sc_hd__and3_1
*I *1437:A1 I *D sky130_fd_sc_hd__a21oi_1
*I *1564:Q O *D sky130_fd_sc_hd__dfrtp_4
*CAP
1 *1434:A 0
2 *1433:A 0.000239297
3 *1408:D 7.2276e-05
4 *1438:B 0.000151098
5 *1437:A1 0
6 *1564:Q 0.000104013
7 *221:98 0.000451764
8 *221:94 0.00052977
9 *221:84 0.00275812
10 *221:66 0.00526576
11 *221:45 0.00451212
12 *221:14 0.00167227
13 *221:12 0.00167227
14 *221:10 0.00212568
15 *221:8 0.00369349
16 *1408:D *1408:B 5.3304e-05
17 *1438:B *222:59 5.44109e-05
18 *221:84 *222:24 0.000201326
19 *221:84 *227:14 4.22723e-05
20 *221:94 *225:79 3.70094e-05
21 an[4] *221:14 0.000185434
22 an[5] *221:14 5.50106e-05
23 an[6] *221:14 5.50106e-05
24 *1405:A *221:94 9.65021e-05
25 *1426:A2 *221:10 0.000138747
26 *1538:A *221:84 5.3304e-05
27 *1564:RESET_B *221:66 0
28 *1579:RESET_B *221:10 0
29 *1579:RESET_B *221:45 0
30 *1580:RESET_B *1433:A 0.000145171
31 *1596:A *221:84 0.000682062
32 *54:18 *221:66 0.000104447
33 *56:24 *221:66 0
34 *77:8 *221:8 9.07594e-05
35 *77:12 *221:10 3.61397e-05
36 *87:26 *221:84 0.000205503
37 *95:82 *221:84 5.3304e-05
38 *95:101 *221:84 2.65505e-05
39 *96:8 *1408:D 0.000141089
40 *97:44 *221:94 0.000424609
41 *97:53 *221:94 3.70094e-05
42 *97:61 *221:94 5.3304e-05
43 *97:65 *221:84 0.000743587
44 *99:10 *221:45 0.000436953
45 *101:12 *221:84 0
46 *106:41 *221:84 6.04679e-05
47 *108:10 *221:45 0.000110184
48 *110:16 *221:94 0.00019861
49 *115:104 *221:94 0.00025413
50 *116:8 *1433:A 7.95762e-05
51 *122:32 *221:84 1.14346e-05
52 *128:18 *221:84 0.00053128
53 *129:54 *221:10 0.000610427
54 *129:66 *221:66 0.000818261
55 *149:33 *1433:A 0.00029106
56 *149:33 *221:98 0.000369588
57 *154:12 *221:14 0.00100375
58 *175:66 *221:94 0.000229471
59 *180:143 *221:84 8.62708e-05
60 *181:10 *1433:A 0.000436269
61 *181:10 *221:98 0.000162254
62 *181:16 *221:98 0.0002203
63 *181:63 *221:10 0
64 *182:71 *221:66 0.0003939
65 *182:71 *221:84 0.000228095
66 *188:76 *221:84 1.37232e-05
67 *188:76 *221:94 6.17437e-06
68 *188:95 *221:84 0.000195544
69 *188:95 *221:94 6.39489e-06
70 *188:101 *221:84 0.000304638
71 *189:14 *221:66 0.000760249
72 *197:10 *221:10 0
73 *197:10 *221:45 1.14277e-05
74 *200:47 *221:10 0.0027633
75 *200:84 *221:8 0.000186606
76 *200:88 *221:45 0.000597611
77 *200:88 *221:66 0.000698093
78 *202:47 *221:66 0.000325098
79 *208:81 *221:84 0
80 *208:128 *221:84 0.000118261
81 *209:54 *221:14 0.000631709
82 *213:33 *221:84 0.000536594
*RES
1 *1564:Q *221:8 41.0036 
2 *221:8 *221:10 51.5579 
3 *221:10 *221:12 15 
4 *221:12 *221:14 36.83 
5 *221:14 *1437:A1 23 
6 *221:8 *221:45 42.0736 
7 *221:45 *1438:B 25.0507 
8 *221:45 *221:66 49.2052 
9 *221:66 *221:84 46.8806 
10 *221:84 *221:94 42.1437 
11 *221:94 *221:98 20.075 
12 *221:98 *1408:D 39.5743 
13 *221:98 *1433:A 45.7057 
14 *221:84 *1434:A 23 
*END

*D_NET *222 0.0380019
*CONN
*I *1408:C I *D sky130_fd_sc_hd__and4_1
*I *1438:A I *D sky130_fd_sc_hd__and3_1
*I *1437:B1 I *D sky130_fd_sc_hd__a21oi_1
*I *1565:Q O *D sky130_fd_sc_hd__dfrtp_2
*CAP
1 *1408:C 0
2 *1438:A 0
3 *1437:B1 0.000371371
4 *1565:Q 0.000383906
5 *222:74 6.43988e-05
6 *222:68 0.000867797
7 *222:59 0.00254001
8 *222:36 0.00265042
9 *222:34 0.0023283
10 *222:30 0.00260431
11 *222:24 0.00246342
12 *222:10 0.00439301
13 *222:8 0.00152514
14 *222:10 *224:26 0.00010157
15 *222:30 *224:10 2.11157e-05
16 *222:59 *1447:A 2.64616e-05
17 *1438:B *222:59 5.44109e-05
18 *1438:C *222:59 0.000197258
19 *1565:RESET_B *222:10 0
20 *1596:A *222:24 0.000177576
21 *11:23 *222:24 0
22 *36:16 *222:10 0.000370952
23 *47:99 *222:24 0.000441845
24 *54:18 *222:24 1.90958e-05
25 *65:14 *222:24 0.000677508
26 *65:20 *222:24 0.000177535
27 *65:24 *222:34 2.81066e-05
28 *65:24 *222:59 0.000313504
29 *69:8 *222:68 0.000655233
30 *85:27 *222:34 9.65021e-05
31 *85:27 *222:59 0.000538686
32 *86:18 *222:30 2.11157e-05
33 *86:18 *222:36 0.00485065
34 *87:10 *222:36 2.46399e-05
35 *94:14 *222:36 0.00241801
36 *97:30 *222:59 4.67488e-05
37 *119:10 *1437:B1 0
38 *122:10 *222:36 0.000248671
39 *133:22 *222:24 0.000771733
40 *138:10 *222:10 6.40159e-05
41 *138:10 *222:24 1.71301e-05
42 *155:22 *222:36 0.00125661
43 *166:36 *222:36 0.000118027
44 *167:22 *222:24 0.000347507
45 *167:22 *222:36 0.000127194
46 *168:8 *222:10 0
47 *168:12 *222:10 0
48 *175:62 *222:24 5.40866e-05
49 *179:96 *222:10 0
50 *181:10 *222:74 0.000113244
51 *191:60 *222:68 0.000315096
52 *200:131 *222:68 0.00131072
53 *205:78 *222:59 0.00037174
54 *206:14 *222:59 2.47815e-05
55 *206:26 *222:59 2.31797e-05
56 *208:111 *222:24 0.000652318
57 *209:54 *1437:B1 0
58 *211:32 *222:68 4.94931e-05
59 *213:33 *222:10 0
60 *213:33 *222:24 0
61 *216:22 *222:8 0.000292701
62 *219:49 *222:24 0.000178202
63 *219:55 *222:68 1.34995e-05
64 *221:84 *222:24 0.000201326
*RES
1 *1565:Q *222:8 43.8621 
2 *222:8 *222:10 21.2736 
3 *222:10 *222:24 44.6364 
4 *222:24 *222:30 23.3211 
5 *222:30 *222:34 16.0979 
6 *222:34 *222:36 68.4296 
7 *222:36 *1437:B1 41.9875 
8 *222:30 *222:59 37.41 
9 *222:59 *1438:A 23 
10 *222:10 *222:68 35.155 
11 *222:68 *222:74 31.5536 
12 *222:74 *1408:C 23 
*END

*D_NET *223 0.0288527
*CONN
*I *1408:B I *D sky130_fd_sc_hd__and4_1
*I *1440:A I *D sky130_fd_sc_hd__or2_1
*I *1441:A I *D sky130_fd_sc_hd__nand2_1
*I *1566:Q O *D sky130_fd_sc_hd__dfrtp_2
*CAP
1 *1408:B 0.00137548
2 *1440:A 0
3 *1441:A 0.000318218
4 *1566:Q 0
5 *223:56 0.00225074
6 *223:43 0.000685887
7 *223:35 0.00183133
8 *223:31 0.00329429
9 *223:6 0.00334233
10 *1408:B *1408:A 0.000805032
11 *1408:B *224:18 0.000617368
12 *223:56 *224:18 0.000255868
13 *1397:A *223:43 0.000179473
14 *1408:D *1408:B 5.3304e-05
15 *1466:A *223:56 5.3304e-05
16 *1466:C *1408:B 1.95448e-05
17 *44:26 *223:31 0.00366999
18 *85:31 *223:31 0.000148302
19 *87:62 *223:56 0.000261458
20 *88:6 *223:43 0.00033875
21 *96:8 *1408:B 6.74169e-05
22 *97:30 *223:31 0.000124574
23 *100:10 *223:31 0.000123705
24 *102:16 *223:31 4.47539e-05
25 *102:16 *223:35 0.000151468
26 *106:41 *223:31 0.000679644
27 *121:10 *223:43 0.000971921
28 *122:6 *1441:A 0.000318666
29 *123:12 *223:35 8.29343e-05
30 *123:12 *223:56 8.59604e-05
31 *127:24 *223:31 1.24219e-05
32 *134:6 *223:43 8.4442e-05
33 *135:14 *223:31 2.95242e-05
34 *140:8 *1408:B 0.000137368
35 *150:12 *223:35 0.000372051
36 *150:12 *223:56 0.000178512
37 *166:36 *223:31 0
38 *170:39 *1441:A 0.00032099
39 *176:47 *223:35 0.00049391
40 *182:18 *223:31 0.000104152
41 *182:48 *223:31 2.06875e-05
42 *187:69 *1441:A 0.000269396
43 *187:69 *223:31 0.000703274
44 *200:123 *223:43 0.000350583
45 *200:129 *223:43 0.000972836
46 *200:131 *223:43 0.000341917
47 *204:10 *223:31 0.000123122
48 *204:21 *223:31 1.02219e-05
49 *204:38 *223:31 0.000331957
50 *209:58 *1441:A 0.00049366
51 *209:58 *223:31 0.00112553
52 *211:32 *223:43 0.000224414
53 *218:18 *1441:A 0
*RES
1 *1566:Q *223:6 38 
2 *223:6 *1441:A 48.3157 
3 *223:6 *223:31 49.2532 
4 *223:31 *223:35 17.1246 
5 *223:35 *223:43 39.9607 
6 *223:43 *1440:A 23 
7 *223:35 *223:56 27.7807 
8 *223:56 *1408:B 48.5614 
*END

*D_NET *224 0.0249429
*CONN
*I *1408:A I *D sky130_fd_sc_hd__and4_1
*I *1444:A I *D sky130_fd_sc_hd__inv_2
*I *1567:Q O *D sky130_fd_sc_hd__dfrtp_2
*CAP
1 *1408:A 0.000737869
2 *1444:A 0
3 *1567:Q 0.000675325
4 *224:26 0.000338583
5 *224:18 0.00150134
6 *224:16 0.00152947
7 *224:10 0.00295624
8 *224:8 0.00252698
9 *224:16 *225:67 0.000297024
10 *1408:B *1408:A 0.000805032
11 *1408:B *224:18 0.000617368
12 *1460:A *224:10 7.37814e-06
13 *1466:A *224:18 5.3304e-05
14 *1580:RESET_B *224:26 0.000137361
15 *1594:A *224:10 2.34061e-05
16 *34:6 *1408:A 0.000479804
17 *34:6 *224:18 0.000608607
18 *86:18 *224:10 0.000164639
19 *87:10 *224:10 0.00330318
20 *87:26 *224:10 0.000136883
21 *87:26 *224:16 0.000186257
22 *87:62 *224:16 0.00118598
23 *93:55 *224:8 0.000292763
24 *96:8 *1408:A 5.3304e-05
25 *106:10 *224:10 0.000430018
26 *124:8 *224:26 9.41704e-05
27 *126:16 *224:10 0.000383837
28 *126:16 *224:16 1.01065e-05
29 *135:14 *224:10 0.00237449
30 *155:16 *224:16 0.000319209
31 *155:49 *224:16 0.000144856
32 *166:36 *224:10 0.000219712
33 *166:36 *224:16 0.000172983
34 *185:8 *224:16 0.00117097
35 *203:45 *224:10 8.34602e-06
36 *203:45 *224:16 0.000186448
37 *203:51 *224:10 1.86371e-05
38 *213:33 *224:26 0.00041245
39 *222:10 *224:26 0.00010157
40 *222:30 *224:10 2.11157e-05
41 *223:56 *224:18 0.000255868
*RES
1 *1567:Q *224:8 47.1971 
2 *224:8 *224:10 55.9596 
3 *224:10 *224:16 46.7032 
4 *224:16 *224:18 13.0086 
5 *224:18 *224:26 37.3536 
6 *224:26 *1444:A 23 
7 *224:18 *1408:A 40.7936 
*END

*D_NET *225 0.0326303
*CONN
*I *1450:A1 I *D sky130_fd_sc_hd__a21oi_2
*I *1414:A1 I *D sky130_fd_sc_hd__o31a_1
*I *1447:A I *D sky130_fd_sc_hd__nand2_1
*I *1451:B I *D sky130_fd_sc_hd__and4_4
*I *1446:A I *D sky130_fd_sc_hd__or2_1
*I *1568:Q O *D sky130_fd_sc_hd__dfrtp_4
*CAP
1 *1450:A1 0
2 *1414:A1 0.000145275
3 *1447:A 2.77218e-05
4 *1451:B 0.000401675
5 *1446:A 0
6 *1568:Q 0.00102578
7 *225:79 0.000968226
8 *225:75 0.00188578
9 *225:67 0.00213136
10 *225:43 0.00130254
11 *225:30 0.00138078
12 *225:24 0.000740087
13 *225:16 0.000377297
14 *225:14 0.00270447
15 *225:10 0.00257232
16 *1451:B *226:37 9.41704e-05
17 *225:75 *1450:B1 0.000137361
18 *1414:B1 *1414:A1 0.000834475
19 *1442:C *225:75 4.0173e-05
20 *1446:B *225:30 9.77405e-05
21 *1449:A *1451:B 0.000102292
22 *1476:A2 *225:24 0.000341983
23 *1555:A *225:14 9.41704e-05
24 *1563:RESET_B *225:30 0.000824372
25 *1566:RESET_B *225:43 5.02282e-05
26 *1568:CLK *225:10 1.21972e-05
27 *1568:CLK *225:14 0.000150891
28 *1568:D *225:10 3.37192e-05
29 *1568:D *225:14 2.06822e-05
30 *1568:RESET_B *225:10 0.000183868
31 *1581:RESET_B *225:79 0.000189484
32 *31:14 *225:67 0
33 *45:16 *1451:B 0.000172846
34 *47:64 *225:24 0.000110913
35 *49:12 *225:24 0.000344307
36 *65:24 *1447:A 5.3304e-05
37 *87:26 *225:67 0.000186257
38 *87:62 *225:67 0.000816337
39 *95:101 *225:79 0.000612573
40 *97:53 *225:79 1.12487e-05
41 *97:61 *225:75 0.000223906
42 *97:76 *225:79 0.000640974
43 *99:22 *1414:A1 0.000834475
44 *100:10 *225:30 0.00097473
45 *102:16 *225:67 0.000189891
46 *104:22 *225:30 0.000187692
47 *104:22 *225:43 0.000175403
48 *110:16 *225:79 0.000160182
49 *115:104 *225:75 0.000717153
50 *120:40 *225:43 0.00109184
51 *123:8 *225:75 0.000105881
52 *125:8 *225:30 4.78593e-05
53 *125:8 *225:43 5.68958e-05
54 *125:12 *225:16 0.00015795
55 *125:12 *225:24 0.000262829
56 *125:12 *225:67 0.000708123
57 *139:33 *225:75 0.000671525
58 *143:41 *1451:B 4.05745e-05
59 *165:10 *1451:B 2.56967e-05
60 *175:62 *225:75 4.67488e-05
61 *175:66 *225:75 0.000442836
62 *176:41 *225:14 0.000262864
63 *176:47 *225:67 0
64 *182:48 *225:67 0.000129601
65 *188:111 *225:75 0.000175903
66 *194:12 *225:14 0.00208834
67 *203:45 *225:67 0.00023219
68 *203:51 *225:16 7.10099e-05
69 *203:51 *225:24 7.34858e-05
70 *203:51 *225:67 9.55314e-05
71 *205:30 *225:43 0
72 *205:49 *225:43 0
73 *209:85 *225:67 0.000110292
74 *210:20 *225:30 6.61999e-05
75 *210:20 *225:43 0
76 *210:74 *225:43 2.2324e-05
77 *221:94 *225:79 3.70094e-05
78 *222:59 *1447:A 2.64616e-05
79 *224:16 *225:67 0.000297024
*RES
1 *1568:Q *225:10 35.0971 
2 *225:10 *225:14 43.7307 
3 *225:14 *225:16 2.25786 
4 *225:16 *225:24 37.6229 
5 *225:24 *225:30 30.5771 
6 *225:30 *1446:A 23 
7 *225:30 *225:43 47.3379 
8 *225:43 *1451:B 29.38 
9 *225:16 *1447:A 38.6214 
10 *225:14 *225:67 43.6686 
11 *225:67 *225:75 26.535 
12 *225:75 *225:79 35.2171 
13 *225:79 *1414:A1 47.1971 
14 *225:75 *1450:A1 23 
*END

*D_NET *226 0.0276551
*CONN
*I *1411:C I *D sky130_fd_sc_hd__or4_2
*I *1451:A I *D sky130_fd_sc_hd__and4_4
*I *1450:B1 I *D sky130_fd_sc_hd__a21oi_2
*I *1569:Q O *D sky130_fd_sc_hd__dfrtp_2
*CAP
1 *1411:C 0
2 *1451:A 0
3 *1450:B1 5.12839e-05
4 *1569:Q 0.000171502
5 *226:58 0.000782426
6 *226:37 0.000752339
7 *226:31 0.00167564
8 *226:27 0.00180067
9 *226:16 0.00136533
10 *226:14 0.00131405
11 *226:12 0.00251362
12 *226:8 0.00102533
13 *1394:B *226:27 0.000188927
14 *1411:B *226:58 0.000110068
15 *1451:B *226:37 9.41704e-05
16 *1556:A *226:58 0.000147489
17 *1577:RESET_B *226:31 0.000134756
18 *1577:RESET_B *226:37 0.000156321
19 *28:12 *226:58 0.00081748
20 *42:6 *226:27 0.00115487
21 *45:16 *226:37 0.000111548
22 *47:39 *226:37 0
23 *57:14 *226:27 0.00249153
24 *76:10 *226:58 0.000427198
25 *76:30 *226:12 0.000173218
26 *80:18 *226:8 0.000314811
27 *92:14 *226:16 0.00124019
28 *96:33 *226:37 0.000388764
29 *102:28 *226:37 0.00023891
30 *104:16 *226:37 0.000265502
31 *127:24 *226:16 0.000119711
32 *129:35 *226:37 0.000156632
33 *129:120 *226:16 0
34 *142:28 *226:37 9.93503e-05
35 *143:41 *226:37 0.000219383
36 *146:10 *226:16 0.00282108
37 *151:32 *226:58 5.26566e-05
38 *163:56 *226:37 0.000786331
39 *175:66 *1450:B1 0.000137361
40 *180:133 *226:16 0.000187986
41 *181:51 *226:58 0.000716475
42 *188:95 *226:16 5.33831e-05
43 *189:38 *226:8 0.000144868
44 *190:35 *226:27 6.06224e-05
45 *190:41 *226:12 0.00028167
46 *190:41 *226:27 0.000229312
47 *191:72 *226:16 0
48 *196:43 *226:31 0.00027635
49 *196:43 *226:37 1.0092e-05
50 *202:20 *226:58 0.000669093
51 *207:20 *226:16 0.000554074
52 *207:89 *226:16 4.15283e-06
53 *207:112 *226:16 2.9217e-05
54 *225:75 *1450:B1 0.000137361
*RES
1 *1569:Q *226:8 42.3707 
2 *226:8 *226:12 27.5321 
3 *226:12 *226:14 15 
4 *226:14 *226:16 38.8807 
5 *226:16 *1450:B1 39.5743 
6 *226:12 *226:27 36.3536 
7 *226:27 *226:31 19.0186 
8 *226:31 *226:37 36.6879 
9 *226:37 *1451:A 23 
10 *226:31 *226:58 38.5107 
11 *226:58 *1411:C 23 
*END

*D_NET *227 0.0392649
*CONN
*I *1401:A1 I *D sky130_fd_sc_hd__a21oi_1
*I *1398:A1_N I *D sky130_fd_sc_hd__o2bb2a_1
*I *1404:A1 I *D sky130_fd_sc_hd__a21oi_1
*I *1392:A I *D sky130_fd_sc_hd__and3_2
*I *1403:A1 I *D sky130_fd_sc_hd__a21oi_1
*I *1587:Q O *D sky130_fd_sc_hd__dfrtp_4
*CAP
1 *1401:A1 0
2 *1398:A1_N 0
3 *1404:A1 0.000310741
4 *1392:A 0
5 *1403:A1 0.000126469
6 *1587:Q 0.000927621
7 *227:112 0.000246768
8 *227:99 0.00109182
9 *227:93 0.0027096
10 *227:89 0.00264974
11 *227:73 0.000560096
12 *227:69 0.00185377
13 *227:59 0.00243623
14 *227:53 0.00233435
15 *227:45 0.00181078
16 *227:34 0.00121562
17 *227:26 0.00256138
18 *227:14 0.00130643
19 *1404:A2 *1404:A1 0.000258229
20 *1413:A_N *227:34 5.50049e-05
21 *1413:C *227:26 8.73233e-05
22 *1413:C *227:34 0.000191497
23 *1413:D *227:26 5.35809e-05
24 *1413:D *227:34 2.02297e-05
25 *1566:RESET_B *227:69 1.17524e-06
26 *1599:A *227:26 5.53696e-05
27 *24:14 *227:53 9.43928e-05
28 *43:26 *227:69 0
29 *47:31 *227:73 0.000387176
30 *47:99 *227:14 1.98075e-05
31 *55:8 *227:99 5.31905e-05
32 *58:20 *227:99 0.00018864
33 *61:24 *227:69 0.000956174
34 *70:10 *227:99 0
35 *84:26 *227:99 0.000386192
36 *85:31 *227:14 1.13812e-05
37 *89:16 *227:45 0.000310723
38 *97:22 *227:53 4.03172e-05
39 *97:44 *227:34 6.38844e-05
40 *101:8 *227:34 2.49531e-05
41 *103:14 *227:53 5.6652e-05
42 *103:33 *227:53 8.09411e-05
43 *106:41 *227:14 0.000158467
44 *109:32 *227:26 1.02561e-05
45 *122:32 *227:14 0.000145297
46 *133:28 *227:112 2.24973e-05
47 *134:40 *227:53 0.000339903
48 *134:46 *227:53 0.000498149
49 *134:46 *227:59 0.00021039
50 *137:24 *227:45 0.000208147
51 *138:10 *227:45 0.00249552
52 *140:10 *227:45 0.00182416
53 *145:10 *227:53 0
54 *145:10 *227:59 0
55 *154:14 *227:73 0.00118648
56 *157:12 *227:73 0
57 *159:16 *227:99 0
58 *166:36 *227:69 0.000332587
59 *170:24 *227:99 0
60 *170:47 *227:73 0.000138718
61 *175:18 *227:112 0
62 *176:47 *227:14 4.72559e-05
63 *179:36 *227:99 0.00101598
64 *182:39 *227:69 0.000268284
65 *185:18 *227:34 0.00019746
66 *187:14 *227:34 5.56279e-05
67 *187:50 *227:112 0.000158796
68 *187:61 *1404:A1 0.000135037
69 *187:61 *227:59 0.000803877
70 *187:117 *227:34 0.000596935
71 *189:63 *227:99 0.000407658
72 *190:69 *227:14 1.47819e-05
73 *193:26 *227:73 0.000133316
74 *196:8 *227:99 0.000987104
75 *201:18 *227:89 0.000195819
76 *201:18 *227:93 0.000208903
77 *202:12 *227:53 0.000178517
78 *208:81 *227:14 0.000134269
79 *210:32 *227:69 0.000169744
80 *212:30 *1403:A1 0.000135037
81 *212:71 *227:99 0
82 *214:31 *227:112 9.73225e-05
83 *218:22 *227:69 0.000172114
84 *221:84 *227:14 4.22723e-05
*RES
1 *1587:Q *227:14 48.6705 
2 *227:14 *227:26 28.8725 
3 *227:26 *227:34 49.9064 
4 *227:34 *1403:A1 24.5743 
5 *227:26 *227:45 49.3029 
6 *227:45 *227:53 44.8936 
7 *227:53 *227:59 27.1593 
8 *227:59 *227:69 36.7529 
9 *227:69 *227:73 31.1675 
10 *227:73 *1392:A 23 
11 *227:59 *1404:A1 27.4329 
12 *227:53 *227:89 24.6736 
13 *227:89 *227:93 33.7257 
14 *227:93 *227:99 47.2573 
15 *227:99 *1398:A1_N 23 
16 *227:89 *227:112 34.06 
17 *227:112 *1401:A1 23 
*END
