*SPEF "ieee 1481-1999"
*DESIGN "ZeroToFiveCounter"
*DATE "19:36:06 Wednesday May 21, 2025"
*VENDOR "The OpenROAD Project"
*PROGRAM "OpenROAD"
*VERSION "b16bda7e82721d10566ff7e2b68f1ff0be9f9e38"
*DESIGN_FLOW "NAME_SCOPE LOCAL" "PIN_CAP NONE"
*DIVIDER /
*DELIMITER :
*BUS_DELIMITER []
*T_UNIT 1 NS
*C_UNIT 1 PF
*R_UNIT 1 OHM
*L_UNIT 1 HENRY

*NAME_MAP
*3 net10
*4 net11
*5 net12
*6 net13
*7 net14
*8 net15
*9 net16
*10 net9
*11 clk
*12 rst
*13 seg[0]
*14 seg[1]
*15 seg[2]
*16 seg[3]
*17 seg[4]
*18 seg[5]
*19 seg[6]
*20 _000_
*21 _001_
*22 _002_
*23 _003_
*24 _004_
*25 _005_
*26 _006_
*27 _007_
*28 _008_
*29 _009_
*30 _010_
*31 _011_
*32 _012_
*33 _013_
*34 _014_
*35 _015_
*36 _016_
*37 _017_
*38 _018_
*39 _019_
*40 _020_
*41 _021_
*42 _022_
*43 _023_
*44 _024_
*45 _025_
*46 _026_
*47 _027_
*48 _028_
*49 _029_
*50 _030_
*51 _031_
*52 _032_
*53 _033_
*54 _034_
*55 _035_
*56 _036_
*57 _037_
*58 _038_
*59 _039_
*60 _040_
*61 _041_
*62 _042_
*63 _043_
*64 _044_
*65 _045_
*66 _046_
*67 _047_
*68 _048_
*69 _049_
*70 _050_
*71 _051_
*72 _052_
*73 _053_
*74 _054_
*75 _055_
*76 _056_
*77 _057_
*78 _058_
*79 _059_
*80 _060_
*81 _061_
*82 _062_
*83 _063_
*84 _064_
*85 _065_
*86 _066_
*87 _067_
*88 _068_
*89 _069_
*90 _070_
*91 _071_
*92 _072_
*93 _073_
*94 _074_
*95 _075_
*96 _076_
*97 _077_
*98 _078_
*99 _079_
*100 _080_
*101 _081_
*102 _082_
*103 _083_
*104 _084_
*105 _085_
*106 _086_
*107 _087_
*108 _088_
*109 _089_
*110 _090_
*111 _091_
*112 _092_
*113 _093_
*114 _094_
*115 _095_
*116 _096_
*117 _097_
*118 _098_
*119 _099_
*120 _100_
*121 _101_
*122 _102_
*123 _103_
*124 _104_
*125 _105_
*126 _106_
*127 _107_
*128 _108_
*129 _109_
*130 _110_
*131 _111_
*132 _112_
*133 _113_
*134 _114_
*135 _115_
*136 _116_
*137 _117_
*138 _118_
*139 _119_
*140 _120_
*141 _121_
*142 _122_
*143 _123_
*144 _124_
*145 _125_
*146 _126_
*147 _127_
*148 _128_
*149 _129_
*150 _130_
*151 _131_
*152 _132_
*153 _133_
*154 _134_
*155 _135_
*156 _136_
*157 _137_
*158 _138_
*159 _139_
*160 _140_
*161 _141_
*162 _142_
*163 _143_
*164 _144_
*165 _145_
*166 _146_
*167 _147_
*168 _148_
*169 _149_
*170 _150_
*171 _151_
*172 _152_
*173 _153_
*174 _154_
*175 _155_
*176 _156_
*177 _157_
*178 _158_
*179 _159_
*180 _160_
*181 _161_
*182 clknet_0_clk
*183 clknet_2_0__leaf_clk
*184 clknet_2_1__leaf_clk
*185 clknet_2_2__leaf_clk
*186 clknet_2_3__leaf_clk
*187 decoder\.digit\[0\]
*188 decoder\.digit\[1\]
*189 decoder\.digit\[2\]
*190 decoder\.digit\[3\]
*191 net1
*192 net17
*193 net2
*194 net3
*195 net4
*196 net5
*197 net6
*198 net7
*199 net8
*200 one_second_counter\[0\]
*201 one_second_counter\[10\]
*202 one_second_counter\[11\]
*203 one_second_counter\[12\]
*204 one_second_counter\[13\]
*205 one_second_counter\[14\]
*206 one_second_counter\[15\]
*207 one_second_counter\[16\]
*208 one_second_counter\[17\]
*209 one_second_counter\[18\]
*210 one_second_counter\[19\]
*211 one_second_counter\[1\]
*212 one_second_counter\[20\]
*213 one_second_counter\[21\]
*214 one_second_counter\[22\]
*215 one_second_counter\[23\]
*216 one_second_counter\[24\]
*217 one_second_counter\[25\]
*218 one_second_counter\[26\]
*219 one_second_counter\[2\]
*220 one_second_counter\[3\]
*221 one_second_counter\[4\]
*222 one_second_counter\[5\]
*223 one_second_counter\[6\]
*224 one_second_counter\[7\]
*225 one_second_counter\[8\]
*226 one_second_counter\[9\]
*227 one_second_enable
*228 ANTENNA_1
*229 ANTENNA_2
*230 ANTENNA_3
*231 ANTENNA_4
*232 FILLER_0_0_104
*233 FILLER_0_0_116
*234 FILLER_0_0_128
*235 FILLER_0_0_136
*236 FILLER_0_0_141
*237 FILLER_0_0_153
*238 FILLER_0_0_161
*239 FILLER_0_0_167
*240 FILLER_0_0_169
*241 FILLER_0_0_18
*242 FILLER_0_0_181
*243 FILLER_0_0_26
*244 FILLER_0_0_32
*245 FILLER_0_0_6
*246 FILLER_0_0_67
*247 FILLER_0_0_73
*248 FILLER_0_0_82
*249 FILLER_0_0_88
*250 FILLER_0_10_109
*251 FILLER_0_10_134
*252 FILLER_0_10_141
*253 FILLER_0_10_15
*254 FILLER_0_10_153
*255 FILLER_0_10_165
*256 FILLER_0_10_173
*257 FILLER_0_10_178
*258 FILLER_0_10_21
*259 FILLER_0_10_25
*260 FILLER_0_10_3
*261 FILLER_0_10_32
*262 FILLER_0_10_44
*263 FILLER_0_10_56
*264 FILLER_0_10_66
*265 FILLER_0_10_83
*266 FILLER_0_10_85
*267 FILLER_0_10_97
*268 FILLER_0_11_100
*269 FILLER_0_11_113
*270 FILLER_0_11_144
*271 FILLER_0_11_15
*272 FILLER_0_11_150
*273 FILLER_0_11_156
*274 FILLER_0_11_169
*275 FILLER_0_11_181
*276 FILLER_0_11_189
*277 FILLER_0_11_27
*278 FILLER_0_11_3
*279 FILLER_0_11_39
*280 FILLER_0_11_51
*281 FILLER_0_11_55
*282 FILLER_0_11_57
*283 FILLER_0_11_64
*284 FILLER_0_11_76
*285 FILLER_0_11_88
*286 FILLER_0_12_105
*287 FILLER_0_12_117
*288 FILLER_0_12_129
*289 FILLER_0_12_138
*290 FILLER_0_12_141
*291 FILLER_0_12_15
*292 FILLER_0_12_153
*293 FILLER_0_12_157
*294 FILLER_0_12_169
*295 FILLER_0_12_181
*296 FILLER_0_12_189
*297 FILLER_0_12_27
*298 FILLER_0_12_29
*299 FILLER_0_12_3
*300 FILLER_0_12_41
*301 FILLER_0_12_77
*302 FILLER_0_12_83
*303 FILLER_0_13_113
*304 FILLER_0_13_15
*305 FILLER_0_13_162
*306 FILLER_0_13_169
*307 FILLER_0_13_184
*308 FILLER_0_13_27
*309 FILLER_0_13_3
*310 FILLER_0_13_39
*311 FILLER_0_13_51
*312 FILLER_0_13_55
*313 FILLER_0_13_57
*314 FILLER_0_13_69
*315 FILLER_0_13_81
*316 FILLER_0_13_89
*317 FILLER_0_14_109
*318 FILLER_0_14_121
*319 FILLER_0_14_127
*320 FILLER_0_14_146
*321 FILLER_0_14_15
*322 FILLER_0_14_150
*323 FILLER_0_14_162
*324 FILLER_0_14_174
*325 FILLER_0_14_186
*326 FILLER_0_14_27
*327 FILLER_0_14_29
*328 FILLER_0_14_3
*329 FILLER_0_14_41
*330 FILLER_0_14_53
*331 FILLER_0_14_61
*332 FILLER_0_14_71
*333 FILLER_0_14_83
*334 FILLER_0_14_85
*335 FILLER_0_14_97
*336 FILLER_0_15_105
*337 FILLER_0_15_111
*338 FILLER_0_15_121
*339 FILLER_0_15_133
*340 FILLER_0_15_144
*341 FILLER_0_15_15
*342 FILLER_0_15_156
*343 FILLER_0_15_174
*344 FILLER_0_15_186
*345 FILLER_0_15_27
*346 FILLER_0_15_3
*347 FILLER_0_15_39
*348 FILLER_0_15_51
*349 FILLER_0_15_55
*350 FILLER_0_15_57
*351 FILLER_0_15_69
*352 FILLER_0_15_81
*353 FILLER_0_15_93
*354 FILLER_0_16_109
*355 FILLER_0_16_121
*356 FILLER_0_16_133
*357 FILLER_0_16_139
*358 FILLER_0_16_141
*359 FILLER_0_16_15
*360 FILLER_0_16_152
*361 FILLER_0_16_164
*362 FILLER_0_16_176
*363 FILLER_0_16_180
*364 FILLER_0_16_27
*365 FILLER_0_16_29
*366 FILLER_0_16_3
*367 FILLER_0_16_44
*368 FILLER_0_16_56
*369 FILLER_0_16_68
*370 FILLER_0_16_80
*371 FILLER_0_16_85
*372 FILLER_0_16_97
*373 FILLER_0_17_105
*374 FILLER_0_17_111
*375 FILLER_0_17_113
*376 FILLER_0_17_119
*377 FILLER_0_17_127
*378 FILLER_0_17_139
*379 FILLER_0_17_15
*380 FILLER_0_17_151
*381 FILLER_0_17_163
*382 FILLER_0_17_167
*383 FILLER_0_17_169
*384 FILLER_0_17_181
*385 FILLER_0_17_189
*386 FILLER_0_17_21
*387 FILLER_0_17_3
*388 FILLER_0_17_33
*389 FILLER_0_17_41
*390 FILLER_0_17_46
*391 FILLER_0_17_54
*392 FILLER_0_17_57
*393 FILLER_0_17_69
*394 FILLER_0_17_81
*395 FILLER_0_17_93
*396 FILLER_0_18_109
*397 FILLER_0_18_121
*398 FILLER_0_18_133
*399 FILLER_0_18_139
*400 FILLER_0_18_141
*401 FILLER_0_18_15
*402 FILLER_0_18_152
*403 FILLER_0_18_160
*404 FILLER_0_18_188
*405 FILLER_0_18_27
*406 FILLER_0_18_29
*407 FILLER_0_18_3
*408 FILLER_0_18_41
*409 FILLER_0_18_53
*410 FILLER_0_18_60
*411 FILLER_0_18_72
*412 FILLER_0_18_85
*413 FILLER_0_18_97
*414 FILLER_0_19_100
*415 FILLER_0_19_113
*416 FILLER_0_19_121
*417 FILLER_0_19_133
*418 FILLER_0_19_139
*419 FILLER_0_19_15
*420 FILLER_0_19_163
*421 FILLER_0_19_167
*422 FILLER_0_19_169
*423 FILLER_0_19_181
*424 FILLER_0_19_189
*425 FILLER_0_19_23
*426 FILLER_0_19_3
*427 FILLER_0_19_34
*428 FILLER_0_19_46
*429 FILLER_0_19_54
*430 FILLER_0_19_57
*431 FILLER_0_19_88
*432 FILLER_0_1_102
*433 FILLER_0_1_110
*434 FILLER_0_1_113
*435 FILLER_0_1_136
*436 FILLER_0_1_148
*437 FILLER_0_1_15
*438 FILLER_0_1_160
*439 FILLER_0_1_175
*440 FILLER_0_1_183
*441 FILLER_0_1_27
*442 FILLER_0_1_3
*443 FILLER_0_1_54
*444 FILLER_0_1_57
*445 FILLER_0_1_69
*446 FILLER_0_1_81
*447 FILLER_0_1_93
*448 FILLER_0_20_103
*449 FILLER_0_20_124
*450 FILLER_0_20_136
*451 FILLER_0_20_141
*452 FILLER_0_20_149
*453 FILLER_0_20_15
*454 FILLER_0_20_155
*455 FILLER_0_20_180
*456 FILLER_0_20_184
*457 FILLER_0_20_27
*458 FILLER_0_20_29
*459 FILLER_0_20_3
*460 FILLER_0_20_41
*461 FILLER_0_20_53
*462 FILLER_0_20_67
*463 FILLER_0_20_79
*464 FILLER_0_20_83
*465 FILLER_0_20_85
*466 FILLER_0_20_97
*467 FILLER_0_21_105
*468 FILLER_0_21_111
*469 FILLER_0_21_113
*470 FILLER_0_21_121
*471 FILLER_0_21_127
*472 FILLER_0_21_135
*473 FILLER_0_21_141
*474 FILLER_0_21_153
*475 FILLER_0_21_162
*476 FILLER_0_21_169
*477 FILLER_0_21_177
*478 FILLER_0_21_187
*479 FILLER_0_21_3
*480 FILLER_0_21_36
*481 FILLER_0_21_42
*482 FILLER_0_21_46
*483 FILLER_0_21_54
*484 FILLER_0_21_57
*485 FILLER_0_21_69
*486 FILLER_0_21_81
*487 FILLER_0_21_93
*488 FILLER_0_22_100
*489 FILLER_0_22_110
*490 FILLER_0_22_122
*491 FILLER_0_22_131
*492 FILLER_0_22_139
*493 FILLER_0_22_144
*494 FILLER_0_22_15
*495 FILLER_0_22_156
*496 FILLER_0_22_178
*497 FILLER_0_22_27
*498 FILLER_0_22_29
*499 FILLER_0_22_3
*500 FILLER_0_22_41
*501 FILLER_0_22_53
*502 FILLER_0_22_65
*503 FILLER_0_22_75
*504 FILLER_0_22_83
*505 FILLER_0_22_88
*506 FILLER_0_23_113
*507 FILLER_0_23_125
*508 FILLER_0_23_149
*509 FILLER_0_23_15
*510 FILLER_0_23_161
*511 FILLER_0_23_167
*512 FILLER_0_23_169
*513 FILLER_0_23_181
*514 FILLER_0_23_185
*515 FILLER_0_23_27
*516 FILLER_0_23_3
*517 FILLER_0_23_39
*518 FILLER_0_23_51
*519 FILLER_0_23_55
*520 FILLER_0_23_57
*521 FILLER_0_23_69
*522 FILLER_0_23_81
*523 FILLER_0_23_89
*524 FILLER_0_24_108
*525 FILLER_0_24_120
*526 FILLER_0_24_132
*527 FILLER_0_24_141
*528 FILLER_0_24_15
*529 FILLER_0_24_153
*530 FILLER_0_24_165
*531 FILLER_0_24_177
*532 FILLER_0_24_189
*533 FILLER_0_24_27
*534 FILLER_0_24_29
*535 FILLER_0_24_3
*536 FILLER_0_24_35
*537 FILLER_0_24_42
*538 FILLER_0_24_48
*539 FILLER_0_24_52
*540 FILLER_0_24_60
*541 FILLER_0_24_68
*542 FILLER_0_24_76
*543 FILLER_0_24_80
*544 FILLER_0_24_85
*545 FILLER_0_24_96
*546 FILLER_0_25_104
*547 FILLER_0_25_110
*548 FILLER_0_25_113
*549 FILLER_0_25_125
*550 FILLER_0_25_137
*551 FILLER_0_25_141
*552 FILLER_0_25_149
*553 FILLER_0_25_15
*554 FILLER_0_25_161
*555 FILLER_0_25_167
*556 FILLER_0_25_169
*557 FILLER_0_25_175
*558 FILLER_0_25_187
*559 FILLER_0_25_27
*560 FILLER_0_25_3
*561 FILLER_0_25_60
*562 FILLER_0_25_68
*563 FILLER_0_25_72
*564 FILLER_0_25_84
*565 FILLER_0_25_96
*566 FILLER_0_26_109
*567 FILLER_0_26_121
*568 FILLER_0_26_133
*569 FILLER_0_26_139
*570 FILLER_0_26_141
*571 FILLER_0_26_15
*572 FILLER_0_26_153
*573 FILLER_0_26_161
*574 FILLER_0_26_27
*575 FILLER_0_26_29
*576 FILLER_0_26_3
*577 FILLER_0_26_41
*578 FILLER_0_26_46
*579 FILLER_0_26_58
*580 FILLER_0_26_70
*581 FILLER_0_26_82
*582 FILLER_0_26_85
*583 FILLER_0_26_97
*584 FILLER_0_27_105
*585 FILLER_0_27_111
*586 FILLER_0_27_113
*587 FILLER_0_27_125
*588 FILLER_0_27_137
*589 FILLER_0_27_149
*590 FILLER_0_27_15
*591 FILLER_0_27_157
*592 FILLER_0_27_163
*593 FILLER_0_27_167
*594 FILLER_0_27_169
*595 FILLER_0_27_181
*596 FILLER_0_27_27
*597 FILLER_0_27_3
*598 FILLER_0_27_39
*599 FILLER_0_27_51
*600 FILLER_0_27_55
*601 FILLER_0_27_57
*602 FILLER_0_27_69
*603 FILLER_0_27_75
*604 FILLER_0_27_87
*605 FILLER_0_27_99
*606 FILLER_0_28_109
*607 FILLER_0_28_121
*608 FILLER_0_28_129
*609 FILLER_0_28_137
*610 FILLER_0_28_141
*611 FILLER_0_28_153
*612 FILLER_0_28_165
*613 FILLER_0_28_177
*614 FILLER_0_28_185
*615 FILLER_0_28_189
*616 FILLER_0_28_21
*617 FILLER_0_28_27
*618 FILLER_0_28_3
*619 FILLER_0_28_32
*620 FILLER_0_28_44
*621 FILLER_0_28_56
*622 FILLER_0_28_68
*623 FILLER_0_28_76
*624 FILLER_0_28_81
*625 FILLER_0_28_85
*626 FILLER_0_28_9
*627 FILLER_0_28_97
*628 FILLER_0_29_105
*629 FILLER_0_29_111
*630 FILLER_0_29_113
*631 FILLER_0_29_125
*632 FILLER_0_29_13
*633 FILLER_0_29_137
*634 FILLER_0_29_149
*635 FILLER_0_29_161
*636 FILLER_0_29_167
*637 FILLER_0_29_169
*638 FILLER_0_29_173
*639 FILLER_0_29_179
*640 FILLER_0_29_183
*641 FILLER_0_29_189
*642 FILLER_0_29_3
*643 FILLER_0_29_38
*644 FILLER_0_29_50
*645 FILLER_0_29_57
*646 FILLER_0_29_69
*647 FILLER_0_29_7
*648 FILLER_0_29_81
*649 FILLER_0_29_93
*650 FILLER_0_2_109
*651 FILLER_0_2_121
*652 FILLER_0_2_133
*653 FILLER_0_2_139
*654 FILLER_0_2_141
*655 FILLER_0_2_15
*656 FILLER_0_2_166
*657 FILLER_0_2_178
*658 FILLER_0_2_187
*659 FILLER_0_2_27
*660 FILLER_0_2_29
*661 FILLER_0_2_3
*662 FILLER_0_2_41
*663 FILLER_0_2_53
*664 FILLER_0_2_65
*665 FILLER_0_2_77
*666 FILLER_0_2_83
*667 FILLER_0_2_85
*668 FILLER_0_2_97
*669 FILLER_0_30_119
*670 FILLER_0_30_126
*671 FILLER_0_30_132
*672 FILLER_0_30_139
*673 FILLER_0_30_141
*674 FILLER_0_30_15
*675 FILLER_0_30_153
*676 FILLER_0_30_165
*677 FILLER_0_30_177
*678 FILLER_0_30_189
*679 FILLER_0_30_27
*680 FILLER_0_30_3
*681 FILLER_0_30_35
*682 FILLER_0_30_47
*683 FILLER_0_30_56
*684 FILLER_0_30_68
*685 FILLER_0_30_78
*686 FILLER_0_30_85
*687 FILLER_0_31_110
*688 FILLER_0_31_113
*689 FILLER_0_31_121
*690 FILLER_0_31_129
*691 FILLER_0_31_15
*692 FILLER_0_31_155
*693 FILLER_0_31_167
*694 FILLER_0_31_169
*695 FILLER_0_31_181
*696 FILLER_0_31_185
*697 FILLER_0_31_27
*698 FILLER_0_31_3
*699 FILLER_0_31_39
*700 FILLER_0_31_51
*701 FILLER_0_31_55
*702 FILLER_0_31_57
*703 FILLER_0_31_69
*704 FILLER_0_31_79
*705 FILLER_0_31_87
*706 FILLER_0_31_98
*707 FILLER_0_32_109
*708 FILLER_0_32_121
*709 FILLER_0_32_133
*710 FILLER_0_32_139
*711 FILLER_0_32_141
*712 FILLER_0_32_15
*713 FILLER_0_32_153
*714 FILLER_0_32_165
*715 FILLER_0_32_171
*716 FILLER_0_32_183
*717 FILLER_0_32_189
*718 FILLER_0_32_27
*719 FILLER_0_32_29
*720 FILLER_0_32_3
*721 FILLER_0_32_38
*722 FILLER_0_32_48
*723 FILLER_0_32_60
*724 FILLER_0_32_72
*725 FILLER_0_32_85
*726 FILLER_0_33_105
*727 FILLER_0_33_111
*728 FILLER_0_33_113
*729 FILLER_0_33_125
*730 FILLER_0_33_15
*731 FILLER_0_33_151
*732 FILLER_0_33_163
*733 FILLER_0_33_167
*734 FILLER_0_33_169
*735 FILLER_0_33_181
*736 FILLER_0_33_189
*737 FILLER_0_33_27
*738 FILLER_0_33_3
*739 FILLER_0_33_39
*740 FILLER_0_33_51
*741 FILLER_0_33_55
*742 FILLER_0_33_57
*743 FILLER_0_33_69
*744 FILLER_0_33_81
*745 FILLER_0_33_93
*746 FILLER_0_34_102
*747 FILLER_0_34_114
*748 FILLER_0_34_126
*749 FILLER_0_34_138
*750 FILLER_0_34_14
*751 FILLER_0_34_141
*752 FILLER_0_34_153
*753 FILLER_0_34_165
*754 FILLER_0_34_177
*755 FILLER_0_34_189
*756 FILLER_0_34_26
*757 FILLER_0_34_29
*758 FILLER_0_34_3
*759 FILLER_0_34_41
*760 FILLER_0_34_49
*761 FILLER_0_34_58
*762 FILLER_0_34_70
*763 FILLER_0_34_82
*764 FILLER_0_34_85
*765 FILLER_0_34_93
*766 FILLER_0_35_104
*767 FILLER_0_35_111
*768 FILLER_0_35_113
*769 FILLER_0_35_125
*770 FILLER_0_35_137
*771 FILLER_0_35_149
*772 FILLER_0_35_15
*773 FILLER_0_35_161
*774 FILLER_0_35_167
*775 FILLER_0_35_169
*776 FILLER_0_35_181
*777 FILLER_0_35_189
*778 FILLER_0_35_21
*779 FILLER_0_35_3
*780 FILLER_0_35_33
*781 FILLER_0_35_41
*782 FILLER_0_35_51
*783 FILLER_0_35_55
*784 FILLER_0_35_60
*785 FILLER_0_35_72
*786 FILLER_0_35_84
*787 FILLER_0_35_88
*788 FILLER_0_35_92
*789 FILLER_0_36_110
*790 FILLER_0_36_114
*791 FILLER_0_36_120
*792 FILLER_0_36_128
*793 FILLER_0_36_141
*794 FILLER_0_36_149
*795 FILLER_0_36_15
*796 FILLER_0_36_155
*797 FILLER_0_36_167
*798 FILLER_0_36_179
*799 FILLER_0_36_187
*800 FILLER_0_36_27
*801 FILLER_0_36_29
*802 FILLER_0_36_3
*803 FILLER_0_36_38
*804 FILLER_0_36_46
*805 FILLER_0_36_58
*806 FILLER_0_36_70
*807 FILLER_0_36_82
*808 FILLER_0_36_85
*809 FILLER_0_36_98
*810 FILLER_0_37_105
*811 FILLER_0_37_111
*812 FILLER_0_37_113
*813 FILLER_0_37_125
*814 FILLER_0_37_137
*815 FILLER_0_37_149
*816 FILLER_0_37_15
*817 FILLER_0_37_157
*818 FILLER_0_37_164
*819 FILLER_0_37_175
*820 FILLER_0_37_183
*821 FILLER_0_37_189
*822 FILLER_0_37_27
*823 FILLER_0_37_3
*824 FILLER_0_37_42
*825 FILLER_0_37_46
*826 FILLER_0_37_51
*827 FILLER_0_37_55
*828 FILLER_0_37_57
*829 FILLER_0_37_69
*830 FILLER_0_37_81
*831 FILLER_0_37_93
*832 FILLER_0_38_101
*833 FILLER_0_38_107
*834 FILLER_0_38_119
*835 FILLER_0_38_131
*836 FILLER_0_38_139
*837 FILLER_0_38_141
*838 FILLER_0_38_15
*839 FILLER_0_38_153
*840 FILLER_0_38_157
*841 FILLER_0_38_181
*842 FILLER_0_38_185
*843 FILLER_0_38_27
*844 FILLER_0_38_29
*845 FILLER_0_38_3
*846 FILLER_0_38_42
*847 FILLER_0_38_54
*848 FILLER_0_38_66
*849 FILLER_0_38_78
*850 FILLER_0_38_85
*851 FILLER_0_38_93
*852 FILLER_0_39_104
*853 FILLER_0_39_110
*854 FILLER_0_39_113
*855 FILLER_0_39_125
*856 FILLER_0_39_136
*857 FILLER_0_39_148
*858 FILLER_0_39_16
*859 FILLER_0_39_160
*860 FILLER_0_39_169
*861 FILLER_0_39_181
*862 FILLER_0_39_189
*863 FILLER_0_39_24
*864 FILLER_0_39_3
*865 FILLER_0_39_36
*866 FILLER_0_39_48
*867 FILLER_0_39_57
*868 FILLER_0_39_72
*869 FILLER_0_39_84
*870 FILLER_0_39_9
*871 FILLER_0_39_96
*872 FILLER_0_3_106
*873 FILLER_0_3_11
*874 FILLER_0_3_113
*875 FILLER_0_3_125
*876 FILLER_0_3_129
*877 FILLER_0_3_135
*878 FILLER_0_3_147
*879 FILLER_0_3_159
*880 FILLER_0_3_167
*881 FILLER_0_3_169
*882 FILLER_0_3_181
*883 FILLER_0_3_189
*884 FILLER_0_3_3
*885 FILLER_0_3_37
*886 FILLER_0_3_45
*887 FILLER_0_3_52
*888 FILLER_0_3_57
*889 FILLER_0_3_69
*890 FILLER_0_3_82
*891 FILLER_0_3_94
*892 FILLER_0_40_106
*893 FILLER_0_40_133
*894 FILLER_0_40_139
*895 FILLER_0_40_141
*896 FILLER_0_40_15
*897 FILLER_0_40_153
*898 FILLER_0_40_165
*899 FILLER_0_40_173
*900 FILLER_0_40_179
*901 FILLER_0_40_187
*902 FILLER_0_40_27
*903 FILLER_0_40_29
*904 FILLER_0_40_3
*905 FILLER_0_40_41
*906 FILLER_0_40_46
*907 FILLER_0_40_58
*908 FILLER_0_40_70
*909 FILLER_0_40_77
*910 FILLER_0_40_83
*911 FILLER_0_40_85
*912 FILLER_0_40_94
*913 FILLER_0_41_106
*914 FILLER_0_41_113
*915 FILLER_0_41_125
*916 FILLER_0_41_137
*917 FILLER_0_41_149
*918 FILLER_0_41_155
*919 FILLER_0_41_160
*920 FILLER_0_41_18
*921 FILLER_0_41_181
*922 FILLER_0_41_189
*923 FILLER_0_41_3
*924 FILLER_0_41_30
*925 FILLER_0_41_42
*926 FILLER_0_41_54
*927 FILLER_0_41_57
*928 FILLER_0_41_70
*929 FILLER_0_41_82
*930 FILLER_0_41_94
*931 FILLER_0_42_109
*932 FILLER_0_42_121
*933 FILLER_0_42_129
*934 FILLER_0_42_134
*935 FILLER_0_42_141
*936 FILLER_0_42_15
*937 FILLER_0_42_153
*938 FILLER_0_42_189
*939 FILLER_0_42_27
*940 FILLER_0_42_29
*941 FILLER_0_42_3
*942 FILLER_0_42_35
*943 FILLER_0_42_68
*944 FILLER_0_42_80
*945 FILLER_0_42_85
*946 FILLER_0_42_97
*947 FILLER_0_43_105
*948 FILLER_0_43_111
*949 FILLER_0_43_113
*950 FILLER_0_43_125
*951 FILLER_0_43_137
*952 FILLER_0_43_149
*953 FILLER_0_43_15
*954 FILLER_0_43_161
*955 FILLER_0_43_167
*956 FILLER_0_43_169
*957 FILLER_0_43_176
*958 FILLER_0_43_188
*959 FILLER_0_43_27
*960 FILLER_0_43_3
*961 FILLER_0_43_37
*962 FILLER_0_43_49
*963 FILLER_0_43_55
*964 FILLER_0_43_57
*965 FILLER_0_43_69
*966 FILLER_0_43_81
*967 FILLER_0_43_93
*968 FILLER_0_44_104
*969 FILLER_0_44_112
*970 FILLER_0_44_116
*971 FILLER_0_44_124
*972 FILLER_0_44_129
*973 FILLER_0_44_137
*974 FILLER_0_44_141
*975 FILLER_0_44_15
*976 FILLER_0_44_153
*977 FILLER_0_44_157
*978 FILLER_0_44_161
*979 FILLER_0_44_169
*980 FILLER_0_44_175
*981 FILLER_0_44_187
*982 FILLER_0_44_27
*983 FILLER_0_44_29
*984 FILLER_0_44_3
*985 FILLER_0_44_41
*986 FILLER_0_44_53
*987 FILLER_0_44_65
*988 FILLER_0_44_77
*989 FILLER_0_44_83
*990 FILLER_0_44_85
*991 FILLER_0_44_92
*992 FILLER_0_45_116
*993 FILLER_0_45_124
*994 FILLER_0_45_148
*995 FILLER_0_45_15
*996 FILLER_0_45_160
*997 FILLER_0_45_169
*998 FILLER_0_45_181
*999 FILLER_0_45_184
*1000 FILLER_0_45_27
*1001 FILLER_0_45_3
*1002 FILLER_0_45_35
*1003 FILLER_0_45_40
*1004 FILLER_0_45_52
*1005 FILLER_0_45_57
*1006 FILLER_0_45_69
*1007 FILLER_0_45_81
*1008 FILLER_0_45_89
*1009 FILLER_0_46_109
*1010 FILLER_0_46_113
*1011 FILLER_0_46_125
*1012 FILLER_0_46_137
*1013 FILLER_0_46_141
*1014 FILLER_0_46_149
*1015 FILLER_0_46_15
*1016 FILLER_0_46_157
*1017 FILLER_0_46_165
*1018 FILLER_0_46_169
*1019 FILLER_0_46_188
*1020 FILLER_0_46_27
*1021 FILLER_0_46_29
*1022 FILLER_0_46_3
*1023 FILLER_0_46_41
*1024 FILLER_0_46_53
*1025 FILLER_0_46_57
*1026 FILLER_0_46_69
*1027 FILLER_0_46_81
*1028 FILLER_0_46_85
*1029 FILLER_0_46_97
*1030 FILLER_0_4_109
*1031 FILLER_0_4_121
*1032 FILLER_0_4_126
*1033 FILLER_0_4_141
*1034 FILLER_0_4_15
*1035 FILLER_0_4_153
*1036 FILLER_0_4_165
*1037 FILLER_0_4_24
*1038 FILLER_0_4_29
*1039 FILLER_0_4_3
*1040 FILLER_0_4_41
*1041 FILLER_0_4_53
*1042 FILLER_0_4_65
*1043 FILLER_0_4_77
*1044 FILLER_0_4_83
*1045 FILLER_0_4_85
*1046 FILLER_0_4_97
*1047 FILLER_0_5_104
*1048 FILLER_0_5_11
*1049 FILLER_0_5_113
*1050 FILLER_0_5_125
*1051 FILLER_0_5_137
*1052 FILLER_0_5_153
*1053 FILLER_0_5_165
*1054 FILLER_0_5_169
*1055 FILLER_0_5_181
*1056 FILLER_0_5_189
*1057 FILLER_0_5_20
*1058 FILLER_0_5_3
*1059 FILLER_0_5_32
*1060 FILLER_0_5_44
*1061 FILLER_0_5_57
*1062 FILLER_0_5_69
*1063 FILLER_0_5_81
*1064 FILLER_0_5_93
*1065 FILLER_0_6_109
*1066 FILLER_0_6_121
*1067 FILLER_0_6_133
*1068 FILLER_0_6_139
*1069 FILLER_0_6_141
*1070 FILLER_0_6_145
*1071 FILLER_0_6_157
*1072 FILLER_0_6_169
*1073 FILLER_0_6_181
*1074 FILLER_0_6_189
*1075 FILLER_0_6_19
*1076 FILLER_0_6_27
*1077 FILLER_0_6_29
*1078 FILLER_0_6_3
*1079 FILLER_0_6_40
*1080 FILLER_0_6_48
*1081 FILLER_0_6_55
*1082 FILLER_0_6_67
*1083 FILLER_0_6_71
*1084 FILLER_0_6_78
*1085 FILLER_0_6_85
*1086 FILLER_0_6_97
*1087 FILLER_0_7_105
*1088 FILLER_0_7_111
*1089 FILLER_0_7_113
*1090 FILLER_0_7_119
*1091 FILLER_0_7_141
*1092 FILLER_0_7_147
*1093 FILLER_0_7_15
*1094 FILLER_0_7_154
*1095 FILLER_0_7_166
*1096 FILLER_0_7_169
*1097 FILLER_0_7_183
*1098 FILLER_0_7_189
*1099 FILLER_0_7_27
*1100 FILLER_0_7_3
*1101 FILLER_0_7_39
*1102 FILLER_0_7_51
*1103 FILLER_0_7_55
*1104 FILLER_0_7_57
*1105 FILLER_0_7_69
*1106 FILLER_0_7_81
*1107 FILLER_0_7_93
*1108 FILLER_0_8_109
*1109 FILLER_0_8_124
*1110 FILLER_0_8_136
*1111 FILLER_0_8_141
*1112 FILLER_0_8_147
*1113 FILLER_0_8_15
*1114 FILLER_0_8_171
*1115 FILLER_0_8_183
*1116 FILLER_0_8_27
*1117 FILLER_0_8_3
*1118 FILLER_0_8_49
*1119 FILLER_0_8_61
*1120 FILLER_0_8_73
*1121 FILLER_0_8_81
*1122 FILLER_0_8_85
*1123 FILLER_0_8_97
*1124 FILLER_0_9_105
*1125 FILLER_0_9_111
*1126 FILLER_0_9_113
*1127 FILLER_0_9_119
*1128 FILLER_0_9_125
*1129 FILLER_0_9_141
*1130 FILLER_0_9_15
*1131 FILLER_0_9_153
*1132 FILLER_0_9_165
*1133 FILLER_0_9_189
*1134 FILLER_0_9_27
*1135 FILLER_0_9_3
*1136 FILLER_0_9_39
*1137 FILLER_0_9_51
*1138 FILLER_0_9_55
*1139 FILLER_0_9_57
*1140 FILLER_0_9_69
*1141 FILLER_0_9_81
*1142 FILLER_0_9_93
*1143 PHY_EDGE_ROW_0_Left_47
*1144 PHY_EDGE_ROW_0_Right_0
*1145 PHY_EDGE_ROW_10_Left_57
*1146 PHY_EDGE_ROW_10_Right_10
*1147 PHY_EDGE_ROW_11_Left_58
*1148 PHY_EDGE_ROW_11_Right_11
*1149 PHY_EDGE_ROW_12_Left_59
*1150 PHY_EDGE_ROW_12_Right_12
*1151 PHY_EDGE_ROW_13_Left_60
*1152 PHY_EDGE_ROW_13_Right_13
*1153 PHY_EDGE_ROW_14_Left_61
*1154 PHY_EDGE_ROW_14_Right_14
*1155 PHY_EDGE_ROW_15_Left_62
*1156 PHY_EDGE_ROW_15_Right_15
*1157 PHY_EDGE_ROW_16_Left_63
*1158 PHY_EDGE_ROW_16_Right_16
*1159 PHY_EDGE_ROW_17_Left_64
*1160 PHY_EDGE_ROW_17_Right_17
*1161 PHY_EDGE_ROW_18_Left_65
*1162 PHY_EDGE_ROW_18_Right_18
*1163 PHY_EDGE_ROW_19_Left_66
*1164 PHY_EDGE_ROW_19_Right_19
*1165 PHY_EDGE_ROW_1_Left_48
*1166 PHY_EDGE_ROW_1_Right_1
*1167 PHY_EDGE_ROW_20_Left_67
*1168 PHY_EDGE_ROW_20_Right_20
*1169 PHY_EDGE_ROW_21_Left_68
*1170 PHY_EDGE_ROW_21_Right_21
*1171 PHY_EDGE_ROW_22_Left_69
*1172 PHY_EDGE_ROW_22_Right_22
*1173 PHY_EDGE_ROW_23_Left_70
*1174 PHY_EDGE_ROW_23_Right_23
*1175 PHY_EDGE_ROW_24_Left_71
*1176 PHY_EDGE_ROW_24_Right_24
*1177 PHY_EDGE_ROW_25_Left_72
*1178 PHY_EDGE_ROW_25_Right_25
*1179 PHY_EDGE_ROW_26_Left_73
*1180 PHY_EDGE_ROW_26_Right_26
*1181 PHY_EDGE_ROW_27_Left_74
*1182 PHY_EDGE_ROW_27_Right_27
*1183 PHY_EDGE_ROW_28_Left_75
*1184 PHY_EDGE_ROW_28_Right_28
*1185 PHY_EDGE_ROW_29_Left_76
*1186 PHY_EDGE_ROW_29_Right_29
*1187 PHY_EDGE_ROW_2_Left_49
*1188 PHY_EDGE_ROW_2_Right_2
*1189 PHY_EDGE_ROW_30_Left_77
*1190 PHY_EDGE_ROW_30_Right_30
*1191 PHY_EDGE_ROW_31_Left_78
*1192 PHY_EDGE_ROW_31_Right_31
*1193 PHY_EDGE_ROW_32_Left_79
*1194 PHY_EDGE_ROW_32_Right_32
*1195 PHY_EDGE_ROW_33_Left_80
*1196 PHY_EDGE_ROW_33_Right_33
*1197 PHY_EDGE_ROW_34_Left_81
*1198 PHY_EDGE_ROW_34_Right_34
*1199 PHY_EDGE_ROW_35_Left_82
*1200 PHY_EDGE_ROW_35_Right_35
*1201 PHY_EDGE_ROW_36_Left_83
*1202 PHY_EDGE_ROW_36_Right_36
*1203 PHY_EDGE_ROW_37_Left_84
*1204 PHY_EDGE_ROW_37_Right_37
*1205 PHY_EDGE_ROW_38_Left_85
*1206 PHY_EDGE_ROW_38_Right_38
*1207 PHY_EDGE_ROW_39_Left_86
*1208 PHY_EDGE_ROW_39_Right_39
*1209 PHY_EDGE_ROW_3_Left_50
*1210 PHY_EDGE_ROW_3_Right_3
*1211 PHY_EDGE_ROW_40_Left_87
*1212 PHY_EDGE_ROW_40_Right_40
*1213 PHY_EDGE_ROW_41_Left_88
*1214 PHY_EDGE_ROW_41_Right_41
*1215 PHY_EDGE_ROW_42_Left_89
*1216 PHY_EDGE_ROW_42_Right_42
*1217 PHY_EDGE_ROW_43_Left_90
*1218 PHY_EDGE_ROW_43_Right_43
*1219 PHY_EDGE_ROW_44_Left_91
*1220 PHY_EDGE_ROW_44_Right_44
*1221 PHY_EDGE_ROW_45_Left_92
*1222 PHY_EDGE_ROW_45_Right_45
*1223 PHY_EDGE_ROW_46_Left_93
*1224 PHY_EDGE_ROW_46_Right_46
*1225 PHY_EDGE_ROW_4_Left_51
*1226 PHY_EDGE_ROW_4_Right_4
*1227 PHY_EDGE_ROW_5_Left_52
*1228 PHY_EDGE_ROW_5_Right_5
*1229 PHY_EDGE_ROW_6_Left_53
*1230 PHY_EDGE_ROW_6_Right_6
*1231 PHY_EDGE_ROW_7_Left_54
*1232 PHY_EDGE_ROW_7_Right_7
*1233 PHY_EDGE_ROW_8_Left_55
*1234 PHY_EDGE_ROW_8_Right_8
*1235 PHY_EDGE_ROW_9_Left_56
*1236 PHY_EDGE_ROW_9_Right_9
*1237 TAP_TAPCELL_ROW_0_94
*1238 TAP_TAPCELL_ROW_0_95
*1239 TAP_TAPCELL_ROW_0_96
*1240 TAP_TAPCELL_ROW_0_97
*1241 TAP_TAPCELL_ROW_0_98
*1242 TAP_TAPCELL_ROW_0_99
*1243 TAP_TAPCELL_ROW_10_127
*1244 TAP_TAPCELL_ROW_10_128
*1245 TAP_TAPCELL_ROW_10_129
*1246 TAP_TAPCELL_ROW_11_130
*1247 TAP_TAPCELL_ROW_11_131
*1248 TAP_TAPCELL_ROW_11_132
*1249 TAP_TAPCELL_ROW_12_133
*1250 TAP_TAPCELL_ROW_12_134
*1251 TAP_TAPCELL_ROW_12_135
*1252 TAP_TAPCELL_ROW_13_136
*1253 TAP_TAPCELL_ROW_13_137
*1254 TAP_TAPCELL_ROW_13_138
*1255 TAP_TAPCELL_ROW_14_139
*1256 TAP_TAPCELL_ROW_14_140
*1257 TAP_TAPCELL_ROW_14_141
*1258 TAP_TAPCELL_ROW_15_142
*1259 TAP_TAPCELL_ROW_15_143
*1260 TAP_TAPCELL_ROW_15_144
*1261 TAP_TAPCELL_ROW_16_145
*1262 TAP_TAPCELL_ROW_16_146
*1263 TAP_TAPCELL_ROW_16_147
*1264 TAP_TAPCELL_ROW_17_148
*1265 TAP_TAPCELL_ROW_17_149
*1266 TAP_TAPCELL_ROW_17_150
*1267 TAP_TAPCELL_ROW_18_151
*1268 TAP_TAPCELL_ROW_18_152
*1269 TAP_TAPCELL_ROW_18_153
*1270 TAP_TAPCELL_ROW_19_154
*1271 TAP_TAPCELL_ROW_19_155
*1272 TAP_TAPCELL_ROW_19_156
*1273 TAP_TAPCELL_ROW_1_100
*1274 TAP_TAPCELL_ROW_1_101
*1275 TAP_TAPCELL_ROW_1_102
*1276 TAP_TAPCELL_ROW_20_157
*1277 TAP_TAPCELL_ROW_20_158
*1278 TAP_TAPCELL_ROW_20_159
*1279 TAP_TAPCELL_ROW_21_160
*1280 TAP_TAPCELL_ROW_21_161
*1281 TAP_TAPCELL_ROW_21_162
*1282 TAP_TAPCELL_ROW_22_163
*1283 TAP_TAPCELL_ROW_22_164
*1284 TAP_TAPCELL_ROW_22_165
*1285 TAP_TAPCELL_ROW_23_166
*1286 TAP_TAPCELL_ROW_23_167
*1287 TAP_TAPCELL_ROW_23_168
*1288 TAP_TAPCELL_ROW_24_169
*1289 TAP_TAPCELL_ROW_24_170
*1290 TAP_TAPCELL_ROW_24_171
*1291 TAP_TAPCELL_ROW_25_172
*1292 TAP_TAPCELL_ROW_25_173
*1293 TAP_TAPCELL_ROW_25_174
*1294 TAP_TAPCELL_ROW_26_175
*1295 TAP_TAPCELL_ROW_26_176
*1296 TAP_TAPCELL_ROW_26_177
*1297 TAP_TAPCELL_ROW_27_178
*1298 TAP_TAPCELL_ROW_27_179
*1299 TAP_TAPCELL_ROW_27_180
*1300 TAP_TAPCELL_ROW_28_181
*1301 TAP_TAPCELL_ROW_28_182
*1302 TAP_TAPCELL_ROW_28_183
*1303 TAP_TAPCELL_ROW_29_184
*1304 TAP_TAPCELL_ROW_29_185
*1305 TAP_TAPCELL_ROW_29_186
*1306 TAP_TAPCELL_ROW_2_103
*1307 TAP_TAPCELL_ROW_2_104
*1308 TAP_TAPCELL_ROW_2_105
*1309 TAP_TAPCELL_ROW_30_187
*1310 TAP_TAPCELL_ROW_30_188
*1311 TAP_TAPCELL_ROW_30_189
*1312 TAP_TAPCELL_ROW_31_190
*1313 TAP_TAPCELL_ROW_31_191
*1314 TAP_TAPCELL_ROW_31_192
*1315 TAP_TAPCELL_ROW_32_193
*1316 TAP_TAPCELL_ROW_32_194
*1317 TAP_TAPCELL_ROW_32_195
*1318 TAP_TAPCELL_ROW_33_196
*1319 TAP_TAPCELL_ROW_33_197
*1320 TAP_TAPCELL_ROW_33_198
*1321 TAP_TAPCELL_ROW_34_199
*1322 TAP_TAPCELL_ROW_34_200
*1323 TAP_TAPCELL_ROW_34_201
*1324 TAP_TAPCELL_ROW_35_202
*1325 TAP_TAPCELL_ROW_35_203
*1326 TAP_TAPCELL_ROW_35_204
*1327 TAP_TAPCELL_ROW_36_205
*1328 TAP_TAPCELL_ROW_36_206
*1329 TAP_TAPCELL_ROW_36_207
*1330 TAP_TAPCELL_ROW_37_208
*1331 TAP_TAPCELL_ROW_37_209
*1332 TAP_TAPCELL_ROW_37_210
*1333 TAP_TAPCELL_ROW_38_211
*1334 TAP_TAPCELL_ROW_38_212
*1335 TAP_TAPCELL_ROW_38_213
*1336 TAP_TAPCELL_ROW_39_214
*1337 TAP_TAPCELL_ROW_39_215
*1338 TAP_TAPCELL_ROW_39_216
*1339 TAP_TAPCELL_ROW_3_106
*1340 TAP_TAPCELL_ROW_3_107
*1341 TAP_TAPCELL_ROW_3_108
*1342 TAP_TAPCELL_ROW_40_217
*1343 TAP_TAPCELL_ROW_40_218
*1344 TAP_TAPCELL_ROW_40_219
*1345 TAP_TAPCELL_ROW_41_220
*1346 TAP_TAPCELL_ROW_41_221
*1347 TAP_TAPCELL_ROW_41_222
*1348 TAP_TAPCELL_ROW_42_223
*1349 TAP_TAPCELL_ROW_42_224
*1350 TAP_TAPCELL_ROW_42_225
*1351 TAP_TAPCELL_ROW_43_226
*1352 TAP_TAPCELL_ROW_43_227
*1353 TAP_TAPCELL_ROW_43_228
*1354 TAP_TAPCELL_ROW_44_229
*1355 TAP_TAPCELL_ROW_44_230
*1356 TAP_TAPCELL_ROW_44_231
*1357 TAP_TAPCELL_ROW_45_232
*1358 TAP_TAPCELL_ROW_45_233
*1359 TAP_TAPCELL_ROW_45_234
*1360 TAP_TAPCELL_ROW_46_235
*1361 TAP_TAPCELL_ROW_46_236
*1362 TAP_TAPCELL_ROW_46_237
*1363 TAP_TAPCELL_ROW_46_238
*1364 TAP_TAPCELL_ROW_46_239
*1365 TAP_TAPCELL_ROW_46_240
*1366 TAP_TAPCELL_ROW_4_109
*1367 TAP_TAPCELL_ROW_4_110
*1368 TAP_TAPCELL_ROW_4_111
*1369 TAP_TAPCELL_ROW_5_112
*1370 TAP_TAPCELL_ROW_5_113
*1371 TAP_TAPCELL_ROW_5_114
*1372 TAP_TAPCELL_ROW_6_115
*1373 TAP_TAPCELL_ROW_6_116
*1374 TAP_TAPCELL_ROW_6_117
*1375 TAP_TAPCELL_ROW_7_118
*1376 TAP_TAPCELL_ROW_7_119
*1377 TAP_TAPCELL_ROW_7_120
*1378 TAP_TAPCELL_ROW_8_121
*1379 TAP_TAPCELL_ROW_8_122
*1380 TAP_TAPCELL_ROW_8_123
*1381 TAP_TAPCELL_ROW_9_124
*1382 TAP_TAPCELL_ROW_9_125
*1383 TAP_TAPCELL_ROW_9_126
*1384 ZeroToFiveCounter_10
*1385 ZeroToFiveCounter_11
*1386 ZeroToFiveCounter_12
*1387 ZeroToFiveCounter_13
*1388 ZeroToFiveCounter_14
*1389 ZeroToFiveCounter_15
*1390 ZeroToFiveCounter_16
*1391 ZeroToFiveCounter_9
*1392 _162_
*1393 _163_
*1394 _164_
*1395 _165_
*1396 _166_
*1397 _167_
*1398 _168_
*1399 _169_
*1400 _170_
*1401 _171_
*1402 _172_
*1403 _173_
*1404 _174_
*1405 _175_
*1406 _176_
*1407 _177_
*1408 _178_
*1409 _179_
*1410 _180_
*1411 _181_
*1412 _182_
*1413 _183_
*1414 _184_
*1415 _185_
*1416 _186_
*1417 _187_
*1418 _188_
*1419 _189_
*1420 _190_
*1421 _191_
*1422 _192_
*1423 _193_
*1424 _194_
*1425 _195_
*1426 _196_
*1427 _197_
*1428 _198_
*1429 _199_
*1430 _200_
*1431 _201_
*1432 _202_
*1433 _203_
*1434 _204_
*1435 _205_
*1436 _206_
*1437 _207_
*1438 _208_
*1439 _209_
*1440 _210_
*1441 _211_
*1442 _212_
*1443 _213_
*1444 _214_
*1445 _215_
*1446 _216_
*1447 _217_
*1448 _218_
*1449 _219_
*1450 _220_
*1451 _221_
*1452 _222_
*1453 _223_
*1454 _224_
*1455 _225_
*1456 _226_
*1457 _227_
*1458 _228_
*1459 _229_
*1460 _230_
*1461 _231_
*1462 _232_
*1463 _233_
*1464 _234_
*1465 _235_
*1466 _236_
*1467 _237_
*1468 _238_
*1469 _239_
*1470 _240_
*1471 _241_
*1472 _242_
*1473 _243_
*1474 _244_
*1475 _245_
*1476 _246_
*1477 _247_
*1478 _248_
*1479 _249_
*1480 _250_
*1481 _251_
*1482 _252_
*1483 _253_
*1484 _254_
*1485 _255_
*1486 _256_
*1487 _257_
*1488 _258_
*1489 _259_
*1490 _260_
*1491 _261_
*1492 _262_
*1493 _263_
*1494 _264_
*1495 _265_
*1496 _266_
*1497 _267_
*1498 _268_
*1499 _269_
*1500 _270_
*1501 _271_
*1502 _272_
*1503 _273_
*1504 _274_
*1505 _275_
*1506 _276_
*1507 _277_
*1508 _278_
*1509 _279_
*1510 _280_
*1511 _281_
*1512 _282_
*1513 _283_
*1514 _284_
*1515 _285_
*1516 _286_
*1517 _287_
*1518 _288_
*1519 _289_
*1520 _290_
*1521 _291_
*1522 _292_
*1523 _293_
*1524 _294_
*1525 _295_
*1526 _296_
*1527 _297_
*1528 _298_
*1529 _299_
*1530 _300_
*1531 _301_
*1532 _302_
*1533 _303_
*1534 _304_
*1535 _305_
*1536 _306_
*1537 _307_
*1538 _308_
*1539 _309_
*1540 _310_
*1541 _311_
*1542 _312_
*1543 _313_
*1544 _314_
*1545 _315_
*1546 _316_
*1547 _317_
*1548 _318_
*1549 _319_
*1550 _320_
*1551 _321_
*1552 _322_
*1553 _323_
*1554 _324_
*1555 _325_
*1556 _326_
*1557 _327_
*1558 _328_
*1559 _329_
*1560 _330_
*1561 _331_
*1562 _332_
*1563 _333_
*1564 _334_
*1565 _335_
*1566 _336_
*1567 _337_
*1568 _338_
*1569 _339_
*1570 _340_
*1571 _341_
*1572 _342_
*1573 _343_
*1574 _344_
*1575 _345_
*1576 _346_
*1577 _347_
*1578 _348_
*1579 _349_
*1580 _350_
*1581 _351_
*1582 _352_
*1583 _353_
*1584 _354_
*1585 _355_
*1586 _356_
*1587 _357_
*1588 _358_
*1589 _359_
*1590 _360_
*1591 _361_
*1592 _370_
*1593 clkbuf_0_clk
*1594 clkbuf_2_0__f_clk
*1595 clkbuf_2_1__f_clk
*1596 clkbuf_2_2__f_clk
*1597 clkbuf_2_3__f_clk
*1598 clkload0
*1599 clkload1
*1600 clkload2
*1601 hold1
*1602 input1
*1603 output2
*1604 output3
*1605 output4
*1606 output5
*1607 output6
*1608 output7
*1609 output8

*PORTS
an[0] O
an[1] O
an[2] O
an[3] O
an[4] O
an[5] O
an[6] O
an[7] O
clk I
rst I
seg[0] O
seg[1] O
seg[2] O
seg[3] O
seg[4] O
seg[5] O
seg[6] O

*D_NET *3 0.000813966
*CONN
*P an[0] O
*I *1384:HI O *D sky130_fd_sc_hd__conb_1
*CAP
1 an[0] 0.000406983
2 *1384:HI 0.000406983
*RES
1 *1384:HI an[0] 10.185 
*END

*D_NET *4 0.00077861
*CONN
*P an[1] O
*I *1385:HI O *D sky130_fd_sc_hd__conb_1
*CAP
1 an[1] 0.000365159
2 *1385:HI 0.000365159
3 an[1] *1578:D 4.82919e-05
*RES
1 *1385:HI an[1] 9.84 
*END

*D_NET *5 0.000838725
*CONN
*P an[2] O
*I *1386:HI O *D sky130_fd_sc_hd__conb_1
*CAP
1 an[2] 0.000395216
2 *1386:HI 0.000395216
3 an[2] *1486:A3 4.82919e-05
*RES
1 *1386:HI an[2] 10.395 
*END

*D_NET *6 0.000967937
*CONN
*P an[3] O
*I *1387:HI O *D sky130_fd_sc_hd__conb_1
*CAP
1 an[3] 0.000421519
2 *1387:HI 0.000421519
3 an[3] *209:56 0.0001249
*RES
1 *1387:HI an[3] 10.53 
*END

*D_NET *7 0.00105755
*CONN
*P an[4] O
*I *1388:HI O *D sky130_fd_sc_hd__conb_1
*CAP
1 an[4] 0.000442907
2 *1388:HI 0.000442907
3 an[4] *1437:A1 0.000163204
4 an[4] *209:56 8.53113e-06
*RES
1 *1388:HI an[4] 10.875 
*END

*D_NET *8 0.000814277
*CONN
*P an[5] O
*I *1389:HI O *D sky130_fd_sc_hd__conb_1
*CAP
1 an[5] 0.000346812
2 *1389:HI 0.000346812
3 an[5] *1431:A 7.23602e-05
4 an[5] *1437:A1 4.82919e-05
*RES
1 *1389:HI an[5] 9.84 
*END

*D_NET *9 0.00077861
*CONN
*P an[6] O
*I *1390:HI O *D sky130_fd_sc_hd__conb_1
*CAP
1 an[6] 0.000365159
2 *1390:HI 0.000365159
3 an[6] *1437:A1 4.82919e-05
*RES
1 *1390:HI an[6] 9.84 
*END

*D_NET *10 0.000786261
*CONN
*P an[7] O
*I *1391:LO O *D sky130_fd_sc_hd__conb_1
*CAP
1 an[7] 0.000393131
2 *1391:LO 0.000393131
*RES
1 *1391:LO an[7] 10.35 
*END

*D_NET *11 0.0152762
*CONN
*P clk I
*I *1593:A I *D sky130_fd_sc_hd__clkbuf_16
*CAP
1 clk 0.00384783
2 *1593:A 0.00384783
3 *1593:A *1423:A 0.00011265
4 *1593:A *1498:A1 0.00356089
5 *1593:A *1516:C 0.000128419
6 *1593:A *1570:RESET_B 0
7 *1593:A *1586:RESET_B 2.03577e-05
8 *1593:A *34:24 0.00251868
9 *1593:A *56:10 0
10 *1593:A *108:30 0.000225332
11 *1593:A *133:30 0.000722149
12 *1593:A *134:40 1.88656e-05
13 *1593:A *142:28 0.000134413
14 *1593:A *185:16 0
15 *1593:A *185:20 0.000119961
16 *1593:A *185:45 1.88656e-05
17 *1593:A *216:26 0
18 *1593:A *222:30 0
*RES
1 clk *1593:A 29.4007 
*END

*D_NET *12 0.000897813
*CONN
*P rst I
*I *1602:A I *D sky130_fd_sc_hd__clkbuf_4
*CAP
1 rst 0.000448907
2 *1602:A 0.000448907
*RES
1 rst *1602:A 11.46 
*END

*D_NET *13 0.000607396
*CONN
*P seg[0] O
*I *1603:X O *D sky130_fd_sc_hd__buf_2
*CAP
1 seg[0] 0.000303698
2 *1603:X 0.000303698
*RES
1 *1603:X seg[0] 5.9833 
*END

*D_NET *14 0.000532226
*CONN
*P seg[1] O
*I *1604:X O *D sky130_fd_sc_hd__buf_2
*CAP
1 seg[1] 0.000261199
2 *1604:X 0.000261199
3 seg[1] *1603:A 9.82856e-06
*RES
1 *1604:X seg[1] 4.9633 
*END

*D_NET *15 0.0010043
*CONN
*P seg[2] O
*I *1605:X O *D sky130_fd_sc_hd__buf_2
*CAP
1 seg[2] 0.00030469
2 *1605:X 0.00030469
3 seg[2] *1573:RESET_B 0
4 seg[2] *35:20 0.000198611
5 seg[2] *78:10 0.000196308
*RES
1 *1605:X seg[2] 7.0033 
*END

*D_NET *16 0.000584843
*CONN
*P seg[3] O
*I *1606:X O *D sky130_fd_sc_hd__buf_2
*CAP
1 seg[3] 0.000272707
2 *1606:X 0.000272707
3 seg[3] *35:20 2.05641e-05
4 seg[3] *78:10 1.88656e-05
*RES
1 *1606:X seg[3] 4.9633 
*END

*D_NET *17 0.00174437
*CONN
*P seg[4] O
*I *1607:X O *D sky130_fd_sc_hd__buf_2
*CAP
1 seg[4] 0.000814533
2 *1607:X 0.000814533
3 seg[4] *1495:A 8.6325e-08
4 seg[4] *99:12 0.000115213
*RES
1 *1607:X seg[4] 9.7829 
*END

*D_NET *18 0.000645073
*CONN
*P seg[5] O
*I *1608:X O *D sky130_fd_sc_hd__buf_2
*CAP
1 seg[5] 0.000303229
2 *1608:X 0.000303229
3 seg[5] *35:16 1.97486e-05
4 seg[5] *78:10 1.88656e-05
*RES
1 *1608:X seg[5] 4.9633 
*END

*D_NET *19 0.000512406
*CONN
*P seg[6] O
*I *1609:X O *D sky130_fd_sc_hd__buf_2
*CAP
1 seg[6] 0.000256203
2 *1609:X 0.000256203
*RES
1 *1609:X seg[6] 5.2183 
*END

*D_NET *20 0.0064771
*CONN
*I *1560:D I *D sky130_fd_sc_hd__dfrtp_4
*I *1420:Y O *D sky130_fd_sc_hd__nor2_1
*CAP
1 *1560:D 0.00112994
2 *1420:Y 0.00112994
3 *1560:D *1420:B 0.000339616
4 *1560:D *1426:B1 0.00011023
5 *1560:D *1501:A 0
6 *1560:D *1509:B 0
7 *1560:D *1574:D 0.00112678
8 *1560:D *1585:D 0.00146388
9 *1560:D *1586:CLK 2.0172e-05
10 *1560:D *21:6 6.98198e-05
11 *1560:D *184:28 0.000112133
12 *1560:D *200:34 0.000234763
13 *1560:D *200:61 1.91597e-05
14 *1560:D *201:46 0.000115184
15 *1560:D *211:87 0.000135448
16 *1560:D *219:8 0.000470049
*RES
1 *1420:Y *1560:D 41.595 
*END

*D_NET *21 0.0126064
*CONN
*I *1570:D I *D sky130_fd_sc_hd__dfrtp_4
*I *1456:X O *D sky130_fd_sc_hd__buf_1
*CAP
1 *1570:D 9.19177e-05
2 *1456:X 0
3 *21:6 0.00472325
4 *21:4 0.00463133
5 *1570:D *1553:A 3.80047e-05
6 *21:6 *1406:B1 0.000575252
7 *21:6 *1560:RESET_B 0.000213165
8 *21:6 *200:10 1.70272e-05
9 *21:6 *200:34 8.81876e-05
10 *21:6 *208:38 0.00215847
11 *1560:D *21:6 6.98198e-05
*RES
1 *1456:X *21:4 1.6 
2 *21:4 *21:6 57.72 
3 *21:6 *1570:D 6.98 
*END

*D_NET *22 0.00469409
*CONN
*I *1571:D I *D sky130_fd_sc_hd__dfrtp_4
*I *1459:Y O *D sky130_fd_sc_hd__nor3_1
*CAP
1 *1571:D 0.000819817
2 *1459:Y 0.000819817
3 *1571:D *1498:B1 0.000118081
4 *1571:D *1498:C1 3.54909e-05
5 *1571:D *1569:CLK 8.30853e-06
6 *1571:D *1569:D 0.000232929
7 *1571:D *47:174 9.76407e-06
8 *1571:D *95:16 0.000424038
9 *1571:D *133:30 0.00110626
10 *1571:D *163:16 3.31413e-05
11 *1571:D *183:64 0.0010567
12 *1571:D *188:20 2.97522e-05
*RES
1 *1459:Y *1571:D 33.52 
*END

*D_NET *23 0.0122553
*CONN
*I *1572:D I *D sky130_fd_sc_hd__dfrtp_2
*I *1463:X O *D sky130_fd_sc_hd__buf_1
*CAP
1 *1572:D 0.000914248
2 *1463:X 0.00277513
3 *23:18 0.00368938
4 *1572:D *1441:B 1.67052e-05
5 *1572:D *1563:CLK 0.00125087
6 *1572:D *1563:D 6.01716e-05
7 *1572:D *1572:CLK 6.61627e-05
8 *1572:D *203:18 0.000175014
9 *23:18 *1394:B 0
10 *23:18 *1417:B1_N 0.000836697
11 *23:18 *1448:C 0.000519449
12 *23:18 *1454:B 0.000966726
13 *23:18 *1499:A 3.87937e-05
14 *23:18 *1517:C1 0.000332222
15 *23:18 *1569:CLK 0.000171514
16 *23:18 *85:10 0
17 *23:18 *88:24 0
18 *23:18 *133:30 0.000442168
19 *23:18 *194:14 0
20 *23:18 *207:122 0
21 *23:18 *213:35 0
*RES
1 *1463:X *23:18 48.365 
2 *23:18 *1572:D 22.25 
*END

*D_NET *24 0.00372134
*CONN
*I *1573:D I *D sky130_fd_sc_hd__dfrtp_1
*I *1467:X O *D sky130_fd_sc_hd__clkbuf_1
*CAP
1 *1573:D 0.000886514
2 *1467:X 0.000886514
3 *1573:D *1417:A2 0.0001774
4 *1573:D *1459:C 0.000343852
5 *1573:D *1497:D 0.000948365
6 *1573:D *1499:B 4.66108e-05
7 *1573:D *1591:CLK 2.69153e-05
8 *1573:D *57:20 0.000101516
9 *1573:D *122:30 0.000173045
10 *1573:D *134:40 0
11 *1573:D *163:12 3.09164e-05
12 *1573:D *227:53 9.96921e-05
*RES
1 *1467:X *1573:D 27.615 
*END

*D_NET *25 0.00880583
*CONN
*I *1574:D I *D sky130_fd_sc_hd__dfrtp_1
*I *1472:X O *D sky130_fd_sc_hd__clkbuf_1
*CAP
1 *1574:D 0.00110731
2 *1472:X 0.00110731
3 *1574:D *1472:A 1.79174e-05
4 *1574:D *1564:RESET_B 0.00154798
5 *1574:D *1574:CLK 1.16578e-05
6 *1574:D *1579:RESET_B 0.000223543
7 *1574:D *1580:D 7.24378e-06
8 *1574:D *56:26 5.1674e-05
9 *1574:D *130:38 5.89925e-05
10 *1574:D *189:28 0.00024508
11 *1574:D *201:46 0.000839291
12 *1574:D *201:61 0.00138507
13 *1574:D *205:30 6.45562e-05
14 *1574:D *211:87 0.00101144
15 *1560:D *1574:D 0.00112678
*RES
1 *1472:X *1574:D 49.47 
*END

*D_NET *26 0.0162269
*CONN
*I *1575:D I *D sky130_fd_sc_hd__dfrtp_2
*I *1476:Y O *D sky130_fd_sc_hd__a211oi_2
*CAP
1 *1575:D 0.00026539
2 *1476:Y 0.00125896
3 *26:20 0.00118109
4 *26:8 0.00217465
5 *1575:D *1523:A 8.49205e-05
6 *1575:D *129:97 6.41532e-05
7 *1575:D *129:103 9.20791e-05
8 *1575:D *206:10 0.0002117
9 *26:8 *1476:A1 8.35068e-05
10 *26:8 *1476:A2 0.000922626
11 *26:8 *1476:B1 4.77757e-05
12 *26:8 *1476:C1 2.20014e-05
13 *26:8 *1561:RESET_B 8.87566e-05
14 *26:8 *108:20 0.00348934
15 *26:8 *120:30 0.000362386
16 *26:8 *143:14 0.000170486
17 *26:20 *1523:A 0.000171243
18 *26:20 *1608:A 0.000656155
19 *26:20 *35:16 0.00073895
20 *26:20 *35:20 0.00130127
21 *26:20 *62:10 0
22 *26:20 *78:10 0.00155607
23 *26:20 *99:12 0.00128338
*RES
1 *1476:Y *26:8 38.55 
2 *26:8 *26:20 44.07 
3 *26:20 *1575:D 7.57 
*END

*D_NET *27 0.00898719
*CONN
*I *1576:D I *D sky130_fd_sc_hd__dfrtp_4
*I *1480:X O *D sky130_fd_sc_hd__clkbuf_1
*CAP
1 *1576:D 0.00182893
2 *1480:X 0.00182893
3 *1576:D *1399:A 0.000442645
4 *1576:D *1452:B 0.000119945
5 *1576:D *1467:A 0.00089261
6 *1576:D *1469:A 0.000558194
7 *1576:D *1478:A 0.000195087
8 *1576:D *1576:RESET_B 8.06075e-05
9 *1576:D *89:18 0.000787623
10 *1576:D *100:16 0.000640355
11 *1576:D *103:33 9.79559e-05
12 *1576:D *115:91 2.52462e-05
13 *1576:D *133:30 0.000119325
14 *1576:D *149:6 0.000196078
15 *1576:D *168:14 0.000777354
16 *1576:D *180:123 0.000203965
17 *1576:D *180:143 0.00019234
*RES
1 *1480:X *1576:D 48.345 
*END

*D_NET *28 0.00267146
*CONN
*I *1577:D I *D sky130_fd_sc_hd__dfrtp_4
*I *1482:Y O *D sky130_fd_sc_hd__nor2_1
*CAP
1 *1577:D 0.000436821
2 *1482:Y 0.000436821
3 *1577:D *1411:C 0.000709641
4 *1577:D *1432:A 0.000302789
5 *1577:D *165:39 0.000302789
6 *1577:D *202:20 0.000482601
*RES
1 *1482:Y *1577:D 18.945 
*END

*D_NET *29 0.0108962
*CONN
*I *1578:D I *D sky130_fd_sc_hd__dfrtp_4
*I *1485:X O *D sky130_fd_sc_hd__o211a_1
*CAP
1 *1578:D 0.00022157
2 *1485:X 0
3 *29:8 0.00158491
4 *29:6 0.00136334
5 *1578:D *1578:CLK 7.60965e-05
6 *29:8 *1510:B 0.000288981
7 *29:8 *1570:RESET_B 0.000500798
8 *29:8 *79:12 0.00230141
9 *29:8 *170:14 0.000388402
10 *29:8 *191:86 0.00412244
11 an[1] *1578:D 4.82919e-05
*RES
1 *1485:X *29:6 3.6 
2 *29:6 *29:8 50.85 
3 *29:8 *1578:D 7.155 
*END

*D_NET *30 0.0147446
*CONN
*I *1579:D I *D sky130_fd_sc_hd__dfrtp_2
*I *1491:X O *D sky130_fd_sc_hd__buf_1
*CAP
1 *1579:D 0.000933063
2 *1491:X 0.00232713
3 *30:8 0.0032602
4 *1579:D *1432:A 0.000941309
5 *1579:D *1519:A1 0.000194701
6 *1579:D *1558:A 0.000716936
7 *1579:D *1572:RESET_B 4.77719e-05
8 *1579:D *57:20 2.49909e-05
9 *1579:D *165:39 0.00304716
10 *1579:D *186:70 0.000185633
11 *1579:D *186:72 0.000373048
12 *1579:D *187:138 0.000332661
13 *30:8 *1395:A 1.91597e-05
14 *30:8 *1491:A 0.00159332
15 *30:8 *132:8 0.000373022
16 *30:8 *179:132 0.000374517
*RES
1 *1491:X *30:8 34.065 
2 *30:8 *1579:D 39.855 
*END

*D_NET *31 0.00638919
*CONN
*I *1561:D I *D sky130_fd_sc_hd__dfrtp_4
*I *1424:X O *D sky130_fd_sc_hd__clkbuf_1
*CAP
1 *1561:D 0.00101551
2 *1424:X 0.00101551
3 *1561:D *1413:D 0.000450935
4 *1561:D *1445:B1 0.000133012
5 *1561:D *1447:B 0.000367849
6 *1561:D *1487:B 4.66108e-05
7 *1561:D *1561:CLK 0.000595093
8 *1561:D *1587:RESET_B 0.000154994
9 *1561:D *100:16 1.95374e-05
10 *1561:D *176:47 0.000442103
11 *1561:D *180:35 0.000596769
12 *1561:D *180:56 4.24744e-05
13 *1561:D *204:38 2.34423e-05
14 *1561:D *209:70 0.000841879
15 *1561:D *209:85 0.000580304
16 *1561:D *210:14 6.31732e-05
17 *1561:D *225:75 0
*RES
1 *1424:X *1561:D 35.64 
*END

*D_NET *32 0.00695494
*CONN
*I *1580:D I *D sky130_fd_sc_hd__dfrtp_2
*I *1495:X O *D sky130_fd_sc_hd__clkbuf_1
*CAP
1 *1580:D 0.00238712
2 *1495:X 0.00238712
3 *1580:D *1472:A 0.00045382
4 *1580:D *1474:A 6.67824e-05
5 *1580:D *1491:A 0.000154658
6 *1580:D *1505:B2 0.000307482
7 *1580:D *1519:A2 4.40241e-05
8 *1580:D *1566:RESET_B 0.000100797
9 *1580:D *1590:D 0
10 *1580:D *98:37 0
11 *1580:D *99:20 4.02438e-05
12 *1580:D *206:10 0.00100566
13 *1574:D *1580:D 7.24378e-06
*RES
1 *1495:X *1580:D 46.53 
*END

*D_NET *33 0.0151468
*CONN
*I *1581:D I *D sky130_fd_sc_hd__dfrtp_2
*I *1498:Y O *D sky130_fd_sc_hd__a211oi_2
*CAP
1 *1581:D 0.00394452
2 *1498:Y 0.00394452
3 *1581:D *1414:A2 0.00055264
4 *1581:D *1427:A 0.00264548
5 *1581:D *1445:C1 0.000102863
6 *1581:D *1449:A 0.00094745
7 *1581:D *1498:A1 0.00035043
8 *1581:D *1498:B1 9.05535e-05
9 *1581:D *1503:A 9.82856e-06
10 *1581:D *1571:RESET_B 0.000101454
11 *1581:D *1588:D 4.66637e-05
12 *1581:D *34:24 0
13 *1581:D *48:12 0.000142253
14 *1581:D *95:82 0.000331462
15 *1581:D *130:38 0.000258365
16 *1581:D *147:16 0
17 *1581:D *147:99 0.000542172
18 *1581:D *180:143 0.000240442
19 *1581:D *185:20 0.000207887
20 *1581:D *188:32 0.000386213
21 *1581:D *215:14 0.000301557
*RES
1 *1498:Y *1581:D 32.0281 
*END

*D_NET *34 0.0188481
*CONN
*I *1582:D I *D sky130_fd_sc_hd__dfrtp_1
*I *1502:X O *D sky130_fd_sc_hd__buf_1
*CAP
1 *1582:D 0.000725132
2 *1502:X 0.00278995
3 *34:24 0.00351508
4 *1582:D *1405:A 0.00086811
5 *1582:D *1494:C 0.000655971
6 *1582:D *1498:A1 0.000260878
7 *1582:D *1586:RESET_B 0.00010408
8 *1582:D *160:10 0.00196048
9 *1582:D *170:45 2.20087e-06
10 *1582:D *207:30 0.00154641
11 *1582:D *217:29 0.00010293
12 *34:24 *1405:A 0.000315539
13 *34:24 *1408:A 0.000412856
14 *34:24 *1423:A 0.000789006
15 *34:24 *1454:B 3.44464e-05
16 *34:24 *1466:B 0.000267553
17 *34:24 *1506:A2 0.000246385
18 *34:24 *1586:RESET_B 0.000311452
19 *34:24 *108:30 6.17446e-06
20 *34:24 *130:38 0
21 *34:24 *146:12 0
22 *34:24 *149:25 0.000421105
23 *34:24 *160:10 0.000283741
24 *34:24 *191:72 0.000154427
25 *34:24 *224:18 0.000555506
26 *1581:D *34:24 0
27 *1593:A *34:24 0.00251868
*RES
1 *1502:X *34:24 27.6446 
2 *34:24 *1582:D 34.5825 
*END

*D_NET *35 0.0147527
*CONN
*I *1583:D I *D sky130_fd_sc_hd__dfrtp_1
*I *1505:Y O *D sky130_fd_sc_hd__a221oi_2
*CAP
1 *1583:D 0.00123414
2 *1505:Y 0.000761849
3 *35:20 0.00217918
4 *35:16 0.00170689
5 *1583:D *1431:A 1.91984e-05
6 *1583:D *1501:A 4.13445e-05
7 *1583:D *1583:RESET_B 2.68526e-05
8 *1583:D *184:84 0.000591598
9 *35:16 *1505:C1 2.68526e-05
10 *35:16 *1608:A 0.000501421
11 *35:16 *57:12 6.03272e-05
12 *35:16 *62:10 0.00019525
13 *35:16 *78:10 0.000492685
14 *35:16 *99:12 8.39076e-05
15 *35:20 *1607:A 0.00332339
16 *35:20 *57:12 2.59482e-05
17 *35:20 *78:10 0.00120274
18 seg[2] *35:20 0.000198611
19 seg[3] *35:20 2.05641e-05
20 seg[5] *35:16 1.97486e-05
21 *26:20 *35:16 0.00073895
22 *26:20 *35:20 0.00130127
*RES
1 *1505:Y *35:16 26.8275 
2 *35:16 *35:20 44.0525 
3 *35:20 *1583:D 19.42 
*END

*D_NET *36 0.010102
*CONN
*I *1584:D I *D sky130_fd_sc_hd__dfrtp_4
*I *1508:Y O *D sky130_fd_sc_hd__nor3_1
*CAP
1 *1584:D 0.000371718
2 *1508:Y 0.00225682
3 *36:20 0.00262854
4 *1584:D *1565:CLK 3.07153e-05
5 *1584:D *1584:CLK 8.84681e-05
6 *1584:D *43:8 0.000328446
7 *36:20 *1414:B1 0
8 *36:20 *1423:A 0.000227313
9 *36:20 *1474:A 0.000347414
10 *36:20 *1508:A 0.00240733
11 *36:20 *1534:A 0.000248435
12 *36:20 *1565:CLK 2.31106e-05
13 *36:20 *1565:RESET_B 0.000233984
14 *36:20 *81:12 0.000121541
15 *36:20 *146:8 0.000161722
16 *36:20 *213:35 0.000130992
17 *36:20 *216:22 0.000145378
18 *36:20 *222:10 0.000350101
*RES
1 *1508:Y *36:20 48.44 
2 *36:20 *1584:D 8.98 
*END

*D_NET *37 0.00567678
*CONN
*I *1585:D I *D sky130_fd_sc_hd__dfrtp_4
*I *1512:X O *D sky130_fd_sc_hd__clkbuf_1
*CAP
1 *1585:D 0.00124058
2 *1512:X 0.00124058
3 *1585:D *1509:A 0
4 *1585:D *1509:B 0
5 *1585:D *1585:CLK 5.83121e-06
6 *1585:D *1585:RESET_B 0.000122331
7 *1585:D *77:14 0.00110378
8 *1585:D *184:28 3.05295e-05
9 *1585:D *197:8 0.000412894
10 *1585:D *217:10 5.63713e-05
11 *1560:D *1585:D 0.00146388
*RES
1 *1512:X *1585:D 35.985 
*END

*D_NET *38 0.00225906
*CONN
*I *1586:D I *D sky130_fd_sc_hd__dfrtp_1
*I *1514:X O *D sky130_fd_sc_hd__o211a_1
*CAP
1 *1586:D 0.000684871
2 *1514:X 0.000684871
3 *1586:D *1427:C 4.77769e-05
4 *1586:D *1431:A 9.05467e-05
5 *1586:D *1462:B 0
6 *1586:D *1462:C 0.000242844
7 *1586:D *1463:A 1.95176e-05
8 *1586:D *115:56 5.34268e-05
9 *1586:D *208:32 0.000435204
*RES
1 *1514:X *1586:D 19.14 
*END

*D_NET *39 0.0112105
*CONN
*I *1562:D I *D sky130_fd_sc_hd__dfrtp_4
*I *1428:X O *D sky130_fd_sc_hd__buf_1
*CAP
1 *1562:D 0.000569798
2 *1428:X 0.00271556
3 *39:14 0.00328536
4 *1562:D *1562:CLK 6.10863e-05
5 *1562:D *193:28 0.000638951
6 *39:14 *1428:A 0.000594692
7 *39:14 *1462:B 0.000613579
8 *39:14 *1497:B 0.00121396
9 *39:14 *1497:D 1.17409e-05
10 *39:14 *1510:B 0.000271308
11 *39:14 *1586:RESET_B 0.000246597
12 *39:14 *115:56 0.000356798
13 *39:14 *156:10 0.000631052
*RES
1 *1428:X *39:14 49.965 
2 *39:14 *1562:D 10.8787 
*END

*D_NET *40 0.00533735
*CONN
*I *1563:D I *D sky130_fd_sc_hd__dfrtp_1
*I *1431:X O *D sky130_fd_sc_hd__clkbuf_1
*CAP
1 *1563:D 0.000748336
2 *1431:X 0.000748336
3 *1563:D *1416:B1 0.00011379
4 *1563:D *1416:C1 5.03838e-05
5 *1563:D *1417:A2 4.29147e-05
6 *1563:D *1451:C 3.39272e-05
7 *1563:D *1471:C 6.72143e-05
8 *1563:D *1473:A 0.000245374
9 *1563:D *1490:C 0.000105704
10 *1563:D *1499:A 0.000779233
11 *1563:D *1499:B 0.000228855
12 *1563:D *1563:CLK 0.000247085
13 *1563:D *43:26 0.000186425
14 *1563:D *47:39 0.000681114
15 *1563:D *129:35 0
16 *1563:D *130:38 0.000740001
17 *1563:D *171:12 0.000258487
18 *1572:D *1563:D 6.01716e-05
*RES
1 *1431:X *1563:D 31.995 
*END

*D_NET *41 0.0101974
*CONN
*I *1564:D I *D sky130_fd_sc_hd__dfrtp_4
*I *1436:X O *D sky130_fd_sc_hd__clkbuf_1
*CAP
1 *1564:D 0.00164548
2 *1436:X 0.00164548
3 *1564:D *1416:C1 0.00314847
4 *1564:D *1484:A2 0.00110529
5 *1564:D *1569:D 9.14049e-05
6 *1564:D *105:52 9.30787e-05
7 *1564:D *105:112 0.00143252
8 *1564:D *105:121 0.000286773
9 *1564:D *153:8 8.73389e-06
10 *1564:D *184:108 6.56968e-05
11 *1564:D *207:30 0.00040691
12 *1564:D *213:61 0.000267526
*RES
1 *1436:X *1564:D 49.935 
*END

*D_NET *42 0.0134371
*CONN
*I *1565:D I *D sky130_fd_sc_hd__dfrtp_2
*I *1439:Y O *D sky130_fd_sc_hd__nor3_1
*CAP
1 *1565:D 0.000838623
2 *1439:Y 0.000749865
3 *42:12 0.00252122
4 *42:8 0.00243246
5 *1565:D *56:14 0.00045391
6 *1565:D *133:30 0.000147088
7 *42:8 *57:20 2.10214e-05
8 *42:8 *226:31 0.000998565
9 *42:12 *1416:A2 0.000280618
10 *42:12 *1461:A 0.00139685
11 *42:12 *1482:B 3.96631e-05
12 *42:12 *1488:B 0.000135714
13 *42:12 *1561:RESET_B 9.29751e-06
14 *42:12 *1577:RESET_B 0.000506349
15 *42:12 *1584:CLK 0
16 *42:12 *43:26 0.000701598
17 *42:12 *66:12 0
18 *42:12 *88:12 0.00153043
19 *42:12 *99:20 0.000542175
20 *42:12 *120:30 7.06865e-05
21 *42:12 *196:37 6.10014e-05
*RES
1 *1439:Y *42:8 13.365 
2 *42:8 *42:12 49.79 
3 *42:12 *1565:D 16.835 
*END

*D_NET *43 0.0182269
*CONN
*I *1566:D I *D sky130_fd_sc_hd__dfrtp_2
*I *1443:X O *D sky130_fd_sc_hd__buf_1
*CAP
1 *1566:D 0
2 *1443:X 0.000657847
3 *43:26 0.00322334
4 *43:8 0.00388119
5 *43:8 *1584:CLK 0.000236126
6 *43:26 *1392:A 0
7 *43:26 *1416:A2 0.00189405
8 *43:26 *1417:A2 0.000103334
9 *43:26 *1452:B 0
10 *43:26 *1462:B 0.000104231
11 *43:26 *1462:C 0.000310247
12 *43:26 *1482:B 0.000859616
13 *43:26 *1491:A 0.000271599
14 *43:26 *1505:B2 0.00171035
15 *43:26 *1558:A 0
16 *43:26 *1566:RESET_B 0.000490668
17 *43:26 *1595:A 0
18 *43:26 *47:39 0.000185571
19 *43:26 *88:12 0.00152701
20 *43:26 *98:37 6.93037e-05
21 *43:26 *99:20 0.000540879
22 *43:26 *130:38 0.000841624
23 *43:26 *156:10 0.000103462
24 *43:26 *216:18 0
25 *1563:D *43:26 0.000186425
26 *1584:D *43:8 0.000328446
27 *42:12 *43:26 0.000701598
*RES
1 *1443:X *43:8 11.985 
2 *43:8 *43:26 48.9025 
3 *43:26 *1566:D 3.6 
*END

*D_NET *44 0.0151095
*CONN
*I *1567:D I *D sky130_fd_sc_hd__dfrtp_2
*I *1445:Y O *D sky130_fd_sc_hd__a211oi_1
*CAP
1 *1567:D 0.00549587
2 *1445:Y 0.00549587
3 *1567:D *1416:A2 2.08619e-05
4 *1567:D *1445:B1 1.08758e-05
5 *1567:D *1452:B 0.000119005
6 *1567:D *1473:A 6.62524e-05
7 *1567:D *1495:A 0
8 *1567:D *1563:RESET_B 0.000213505
9 *1567:D *48:18 0.000125176
10 *1567:D *151:18 0.000172695
11 *1567:D *176:47 0.000143002
12 *1567:D *182:18 0
13 *1567:D *190:69 3.97211e-05
14 *1567:D *223:35 0.00320665
*RES
1 *1445:Y *1567:D 26.1109 
*END

*D_NET *45 0.00866795
*CONN
*I *1568:D I *D sky130_fd_sc_hd__dfrtp_4
*I *1449:X O *D sky130_fd_sc_hd__clkbuf_1
*CAP
1 *1568:D 0.00165841
2 *1449:X 0.00165841
3 *1568:D *1438:C 0.000509732
4 *1568:D *1451:A 9.87041e-05
5 *1568:D *1451:B 0.000149097
6 *1568:D *1451:C 4.93614e-05
7 *1568:D *1471:A 0.000213735
8 *1568:D *1471:C 0.000108271
9 *1568:D *1473:A 5.80923e-05
10 *1568:D *1501:B 0.00106446
11 *1568:D *1558:A 0.000300869
12 *1568:D *1562:RESET_B 2.42236e-05
13 *1568:D *1568:CLK 0.000372579
14 *1568:D *115:14 6.95335e-05
15 *1568:D *129:8 0.000120655
16 *1568:D *194:14 2.49909e-05
17 *1568:D *194:22 0.00213278
18 *1568:D *225:14 5.40469e-05
*RES
1 *1449:X *1568:D 48.825 
*END

*D_NET *46 0.0148231
*CONN
*I *1569:D I *D sky130_fd_sc_hd__dfrtp_2
*I *1452:Y O *D sky130_fd_sc_hd__nor3_1
*CAP
1 *1569:D 0.00167131
2 *1452:Y 0.0019191
3 *46:16 0.00359042
4 *1569:D *1427:A 0.000104423
5 *1569:D *1526:A 0.000309143
6 *1569:D *1569:CLK 4.41642e-05
7 *1569:D *1569:RESET_B 5.6314e-05
8 *1569:D *1571:RESET_B 1.32711e-05
9 *1569:D *48:12 0.000370018
10 *1569:D *95:16 0.000119598
11 *1569:D *95:70 0.000127649
12 *1569:D *105:44 0.000328049
13 *1569:D *105:52 0.000871069
14 *1569:D *146:12 0.000494547
15 *1569:D *147:10 1.88602e-05
16 *1569:D *187:50 0.000152407
17 *1569:D *193:14 0.000103303
18 *1569:D *196:37 0.00076668
19 *1569:D *207:20 3.90266e-05
20 *46:16 *1521:A 0.000451866
21 *46:16 *1567:RESET_B 9.03138e-05
22 *46:16 *47:20 0.000451866
23 *46:16 *170:45 3.99879e-05
24 *46:16 *193:28 0.00236533
25 *1564:D *1569:D 9.14049e-05
26 *1571:D *1569:D 0.000232929
*RES
1 *1452:Y *46:16 36.19 
2 *46:16 *1569:D 43.6237 
*END

*D_NET *47 0.0423278
*CONN
*I *1498:C1 I *D sky130_fd_sc_hd__a211oi_2
*I *1459:A I *D sky130_fd_sc_hd__nor3_1
*I *1420:B I *D sky130_fd_sc_hd__nor2_1
*I *1439:A I *D sky130_fd_sc_hd__nor3_1
*I *1587:D I *D sky130_fd_sc_hd__dfrtp_4
*I *1505:C1 I *D sky130_fd_sc_hd__a221oi_2
*I *1508:A I *D sky130_fd_sc_hd__nor3_1
*I *1476:C1 I *D sky130_fd_sc_hd__a211oi_2
*I *1482:A I *D sky130_fd_sc_hd__nor2_1
*I *1452:A I *D sky130_fd_sc_hd__nor3_1
*I *1419:X O *D sky130_fd_sc_hd__buf_4
*CAP
1 *1498:C1 0.00032123
2 *1459:A 0
3 *1420:B 0.00067302
4 *1439:A 0
5 *1587:D 9.45408e-05
6 *1505:C1 0.00265083
7 *1508:A 0.0009223
8 *1476:C1 0.000289636
9 *1482:A 0
10 *1452:A 0
11 *1419:X 0.00035853
12 *47:174 0.000582457
13 *47:105 0.00467778
14 *47:79 0.00155623
15 *47:64 0.00113897
16 *47:56 0.00169891
17 *47:39 0.00167643
18 *47:33 0.00171408
19 *47:20 0.00176833
20 *47:12 0.00181684
21 *1420:B *1490:A 4.82919e-05
22 *1420:B *1490:C 9.735e-05
23 *1420:B *200:61 8.23457e-05
24 *1476:C1 *1476:B1 8.5931e-05
25 *1476:C1 *108:20 0.000231321
26 *1498:C1 *1459:C 3.50152e-06
27 *1498:C1 *1498:A1 1.79536e-05
28 *1498:C1 *1498:B1 4.55864e-06
29 *1498:C1 *48:12 0.000220836
30 *1498:C1 *105:52 4.77115e-05
31 *1498:C1 *193:14 0.000306849
32 *1498:C1 *215:14 3.54742e-05
33 *1505:C1 *1462:C 7.89282e-05
34 *1505:C1 *1474:A 0.000235907
35 *1505:C1 *1474:C 0.00102752
36 *1505:C1 *1505:A1 0
37 *1505:C1 *1519:B1 0.000612979
38 *1505:C1 *1540:A 1.79536e-05
39 *1505:C1 *1558:A 0.000115273
40 *1505:C1 *129:97 8.43317e-05
41 *1508:A *1474:A 0.000368634
42 *1508:A *1474:C 0.00107322
43 *1508:A *1508:C 0.000513033
44 *1508:A *81:12 6.26721e-05
45 *1587:D *1424:A 1.7882e-05
46 *1587:D *1448:C 5.16603e-05
47 *1587:D *156:25 2.99553e-05
48 *47:12 *1407:D 5.88572e-05
49 *47:12 *93:51 0.000315803
50 *47:12 *95:123 0
51 *47:12 *188:160 0
52 *47:20 *1520:B 0.000490644
53 *47:20 *1521:A 8.43862e-05
54 *47:20 *1567:RESET_B 0.000590731
55 *47:20 *187:69 0.000155701
56 *47:20 *205:30 8.94713e-05
57 *47:33 *1392:A 0.000366219
58 *47:33 *1472:A 0.000148135
59 *47:33 *1473:A 0.000215746
60 *47:33 *1490:B 8.39873e-05
61 *47:33 *1490:C 0.00046528
62 *47:33 *1521:A 0.000130453
63 *47:33 *205:30 9.09288e-05
64 *47:33 *206:26 0.000111149
65 *47:39 *1416:B1 5.83121e-06
66 *47:39 *1417:A2 0.000487861
67 *47:39 *1451:A 0
68 *47:39 *1490:C 8.23457e-05
69 *47:39 *1577:RESET_B 0.000166711
70 *47:39 *130:38 0.000109323
71 *47:56 *1445:B1 1.94059e-05
72 *47:56 *1464:A1 6.27666e-05
73 *47:56 *1577:RESET_B 4.82172e-06
74 *47:56 *76:28 0.000377303
75 *47:56 *125:12 0.000123251
76 *47:56 *130:38 1.00941e-05
77 *47:56 *142:28 0.000230154
78 *47:64 *1464:A1 0.000432167
79 *47:64 *108:20 0.000400907
80 *47:64 *125:12 0.000165847
81 *47:64 *182:14 1.88656e-05
82 *47:64 *225:30 9.30717e-05
83 *47:79 *1424:A 0.000204992
84 *47:79 *65:20 0.000671977
85 *47:79 *122:30 0.000277952
86 *47:79 *134:40 7.94929e-05
87 *47:79 *185:45 2.75462e-05
88 *47:79 *222:30 0.000108076
89 *47:105 *1445:A1 0.000495839
90 *47:105 *1504:A 7.40973e-05
91 *47:105 *1504:B 0
92 *47:105 *1505:A1 0.000477593
93 *47:105 *122:30 0.000545529
94 *47:105 *133:30 0.000390727
95 *47:105 *208:81 2.17773e-05
96 *47:105 *212:28 0
97 *47:105 *222:30 0.000386117
98 *47:105 *227:26 1.8608e-05
99 *47:174 *1407:D 1.14169e-05
100 *47:174 *1459:B 1.52352e-05
101 *47:174 *1459:C 0.000214458
102 *47:174 *93:51 0.00015635
103 *47:174 *95:6 0.000195108
104 *47:174 *95:16 0.000194891
105 *47:174 *188:160 0
106 *1560:D *1420:B 0.000339616
107 *1563:D *47:39 0.000681114
108 *1571:D *1498:C1 3.54909e-05
109 *1571:D *47:174 9.76407e-06
110 *26:8 *1476:C1 2.20014e-05
111 *35:16 *1505:C1 2.68526e-05
112 *36:20 *1508:A 0.00240733
113 *43:26 *47:39 0.000185571
114 *46:16 *47:20 0.000451866
*RES
1 *1419:X *47:12 10.38 
2 *47:12 *47:20 24.995 
3 *47:20 *1452:A 1.6 
4 *47:20 *47:33 20.56 
5 *47:33 *47:39 14.735 
6 *47:39 *1482:A 3.6 
7 *47:39 *47:56 4.75907 
8 *47:56 *47:64 11.555 
9 *47:64 *1476:C1 5.875 
10 *47:64 *47:79 12.9425 
11 *47:79 *47:105 16.3936 
12 *47:105 *1508:A 31.15 
13 *47:105 *1505:C1 21.1544 
14 *47:79 *1587:D 5.03625 
15 *47:56 *1439:A 3.6 
16 *47:33 *1420:B 12.4 
17 *47:12 *47:174 8.84 
18 *47:174 *1459:A 1.6 
19 *47:174 *1498:C1 13.355 
*END

*D_NET *48 0.0160726
*CONN
*I *1560:RESET_B I *D sky130_fd_sc_hd__dfrtp_4
*I *1526:Y O *D sky130_fd_sc_hd__inv_2
*CAP
1 *1560:RESET_B 0.000109521
2 *1526:Y 0.000728269
3 *48:18 0.00308277
4 *48:12 0.00370151
5 *1560:RESET_B *200:10 0.000274061
6 *1560:RESET_B *200:34 0.00014845
7 *48:12 *1427:A 0.000287455
8 *48:12 *1498:B1 1.13572e-05
9 *48:12 *1569:RESET_B 0.000200386
10 *48:12 *95:82 0.000862316
11 *48:12 *105:52 0.000487854
12 *48:12 *188:32 0.00088426
13 *48:12 *188:45 0.000162386
14 *48:18 *1431:A 0.00149816
15 *48:18 *1452:C 0.000278897
16 *48:18 *1473:A 0.000150525
17 *48:18 *1490:C 0
18 *48:18 *1583:RESET_B 3.62646e-05
19 *48:18 *189:72 8.21791e-05
20 *48:18 *189:80 0.00173218
21 *48:18 *215:14 0.000282334
22 *1498:C1 *48:12 0.000220836
23 *1567:D *48:18 0.000125176
24 *1569:D *48:12 0.000370018
25 *1581:D *48:12 0.000142253
26 *21:6 *1560:RESET_B 0.000213165
*RES
1 *1526:Y *48:12 30.17 
2 *48:12 *48:18 48.35 
3 *48:18 *1560:RESET_B 6.8825 
*END

*D_NET *49 0.00489117
*CONN
*I *1561:RESET_B I *D sky130_fd_sc_hd__dfrtp_4
*I *1527:Y O *D sky130_fd_sc_hd__inv_2
*CAP
1 *1561:RESET_B 0.00165408
2 *1527:Y 0.00165408
3 *1561:RESET_B *1476:A1 4.41506e-05
4 *1561:RESET_B *1476:A2 0.000575722
5 *1561:RESET_B *1476:B1 0.000141615
6 *1561:RESET_B *66:12 9.30717e-05
7 *1561:RESET_B *120:30 3.67779e-05
8 *1561:RESET_B *143:14 0.000293117
9 *1561:RESET_B *225:30 0.000300491
10 *26:8 *1561:RESET_B 8.87566e-05
11 *42:12 *1561:RESET_B 9.29751e-06
*RES
1 *1527:Y *1561:RESET_B 26.51 
*END

*D_NET *50 0.0146956
*CONN
*I *1562:RESET_B I *D sky130_fd_sc_hd__dfrtp_4
*I *1528:Y O *D sky130_fd_sc_hd__inv_2
*CAP
1 *1562:RESET_B 0.00103653
2 *1528:Y 0.00126118
3 *50:12 0.00229771
4 *1562:RESET_B *1432:A 0.000182947
5 *1562:RESET_B *1501:A 1.0397e-05
6 *1562:RESET_B *1501:C 0.000486449
7 *1562:RESET_B *1509:A 0.000178683
8 *1562:RESET_B *1558:A 0.000369014
9 *1562:RESET_B *1563:CLK 0.000322084
10 *1562:RESET_B *115:14 0
11 *1562:RESET_B *165:35 0.000712232
12 *1562:RESET_B *184:8 0.000383431
13 *1562:RESET_B *184:10 0.000328192
14 *1562:RESET_B *184:12 0.000181376
15 *1562:RESET_B *184:14 5.39961e-05
16 *1562:RESET_B *184:108 0.000864072
17 *1562:RESET_B *186:72 0.000184392
18 *1562:RESET_B *186:74 0.000716822
19 *1562:RESET_B *194:22 0.00133822
20 *50:12 *1425:C 5.00903e-05
21 *50:12 *1566:RESET_B 0.000102012
22 *50:12 *51:14 0.00130143
23 *50:12 *115:14 4.24562e-05
24 *50:12 *115:91 0.00141075
25 *50:12 *132:8 0.000380139
26 *50:12 *179:148 2.4997e-05
27 *50:12 *186:10 0.000107775
28 *50:12 *186:21 3.86214e-05
29 *50:12 *186:72 0
30 *50:12 *206:10 0.00030541
31 *1568:D *1562:RESET_B 2.42236e-05
*RES
1 *1528:Y *50:12 35.0925 
2 *50:12 *1562:RESET_B 42.0575 
*END

*D_NET *51 0.00982622
*CONN
*I *1563:RESET_B I *D sky130_fd_sc_hd__dfrtp_1
*I *1529:Y O *D sky130_fd_sc_hd__inv_2
*CAP
1 *1563:RESET_B 0.000487153
2 *1529:Y 0.00160366
3 *51:14 0.00209082
4 *1563:RESET_B *1399:A 0.000637303
5 *1563:RESET_B *1487:A 0
6 *1563:RESET_B *100:16 7.36834e-05
7 *1563:RESET_B *190:69 0.000868515
8 *1563:RESET_B *210:22 0.00049259
9 *1563:RESET_B *225:30 0.000682119
10 *51:14 *1558:A 0.000109387
11 *51:14 *88:24 0.000430044
12 *51:14 *139:14 8.52845e-05
13 *51:14 *179:148 0.000679333
14 *51:14 *186:70 0
15 *51:14 *186:72 0
16 *51:14 *187:138 5.69898e-06
17 *51:14 *203:31 6.57007e-05
18 *1567:D *1563:RESET_B 0.000213505
19 *50:12 *51:14 0.00130143
*RES
1 *1529:Y *51:14 35.965 
2 *51:14 *1563:RESET_B 19.445 
*END

*D_NET *52 0.00443423
*CONN
*I *1564:RESET_B I *D sky130_fd_sc_hd__dfrtp_4
*I *1530:Y O *D sky130_fd_sc_hd__inv_2
*CAP
1 *1564:RESET_B 0.000846997
2 *1530:Y 0.000846997
3 *1564:RESET_B *1411:D 0
4 *1564:RESET_B *1579:RESET_B 0.000701437
5 *1564:RESET_B *56:26 0.000162318
6 *1564:RESET_B *129:64 0
7 *1564:RESET_B *181:24 0.000121811
8 *1564:RESET_B *189:28 0.000114958
9 *1564:RESET_B *202:49 0
10 *1564:RESET_B *210:14 7.23533e-05
11 *1564:RESET_B *211:87 1.93765e-05
12 *1564:RESET_B *221:84 0
13 *1574:D *1564:RESET_B 0.00154798
*RES
1 *1530:Y *1564:RESET_B 27.02 
*END

*D_NET *53 0.00419235
*CONN
*I *1565:RESET_B I *D sky130_fd_sc_hd__dfrtp_2
*I *1531:Y O *D sky130_fd_sc_hd__inv_2
*CAP
1 *1565:RESET_B 0.000846023
2 *1531:Y 0.000846023
3 *1565:RESET_B *1466:C 0.000277224
4 *1565:RESET_B *1469:B 0.000184182
5 *1565:RESET_B *1504:A 1.11262e-05
6 *1565:RESET_B *1504:B 4.92861e-05
7 *1565:RESET_B *1534:A 0.000526535
8 *1565:RESET_B *1566:RESET_B 0.000172683
9 *1565:RESET_B *133:30 0.000158497
10 *1565:RESET_B *168:8 0.000309453
11 *1565:RESET_B *168:14 0.000481527
12 *1565:RESET_B *179:100 8.53113e-06
13 *1565:RESET_B *216:22 8.72749e-05
14 *1565:RESET_B *222:10 0
15 *36:20 *1565:RESET_B 0.000233984
*RES
1 *1531:Y *1565:RESET_B 28.4225 
*END

*D_NET *54 0.0202764
*CONN
*I *1566:RESET_B I *D sky130_fd_sc_hd__dfrtp_2
*I *1532:Y O *D sky130_fd_sc_hd__inv_2
*CAP
1 *1566:RESET_B 0.00519102
2 *1532:Y 0.00519102
3 *1566:RESET_B *1392:A 1.25017e-06
4 *1566:RESET_B *1416:A2 0.00103103
5 *1566:RESET_B *1438:C 0.000278774
6 *1566:RESET_B *1441:B 0.000625277
7 *1566:RESET_B *1445:A1 4.66108e-05
8 *1566:RESET_B *1451:B 4.11223e-05
9 *1566:RESET_B *1466:C 0.000284453
10 *1566:RESET_B *1469:B 0.000180675
11 *1566:RESET_B *1472:A 0.000278798
12 *1566:RESET_B *1491:A 0.00243891
13 *1566:RESET_B *1502:A 5.59281e-05
14 *1566:RESET_B *1504:A 0.00117086
15 *1566:RESET_B *1520:A 0
16 *1566:RESET_B *1558:A 0
17 *1566:RESET_B *1573:RESET_B 0.000233463
18 *1566:RESET_B *1591:RESET_B 0
19 *1566:RESET_B *1596:A 5.44225e-05
20 *1566:RESET_B *1597:A 0.000326868
21 *1566:RESET_B *94:26 4.28901e-05
22 *1566:RESET_B *115:14 0.000222781
23 *1566:RESET_B *115:91 0.00013147
24 *1566:RESET_B *122:30 1.45731e-05
25 *1566:RESET_B *165:16 0.000696764
26 *1566:RESET_B *179:75 0.000211247
27 *1566:RESET_B *203:18 0.00017963
28 *1566:RESET_B *203:31 0.000118407
29 *1566:RESET_B *206:10 0.000129954
30 *1566:RESET_B *206:26 0.000105665
31 *1566:RESET_B *209:60 0
32 *1566:RESET_B *221:84 0.00010725
33 *1566:RESET_B *222:30 1.90991e-05
34 *1565:RESET_B *1566:RESET_B 0.000172683
35 *1580:D *1566:RESET_B 0.000100797
36 *43:26 *1566:RESET_B 0.000490668
37 *50:12 *1566:RESET_B 0.000102012
*RES
1 *1532:Y *1566:RESET_B 42.1467 
*END

*D_NET *55 0.00664384
*CONN
*I *1567:RESET_B I *D sky130_fd_sc_hd__dfrtp_2
*I *1533:Y O *D sky130_fd_sc_hd__inv_2
*CAP
1 *1567:RESET_B 0.00253746
2 *1533:Y 0.00253746
3 *1567:RESET_B *1392:C 5.45745e-05
4 *1567:RESET_B *1398:A1_N 5.03476e-05
5 *1567:RESET_B *1398:B2 9.44334e-05
6 *1567:RESET_B *1441:B 0.000222547
7 *1567:RESET_B *1462:B 0
8 *1567:RESET_B *1520:A 0.000197822
9 *1567:RESET_B *187:69 0.000268138
10 *1567:RESET_B *209:60 0
11 *46:16 *1567:RESET_B 9.03138e-05
12 *47:20 *1567:RESET_B 0.000590731
*RES
1 *1533:Y *1567:RESET_B 48.255 
*END

*D_NET *56 0.0140222
*CONN
*I *1568:RESET_B I *D sky130_fd_sc_hd__dfrtp_4
*I *1534:Y O *D sky130_fd_sc_hd__inv_2
*CAP
1 *1568:RESET_B 5.55689e-05
2 *1534:Y 0.000102418
3 *56:26 0.00155675
4 *56:14 0.00432146
5 *56:10 0.0029227
6 *1568:RESET_B *225:14 0.000156275
7 *56:14 *133:30 0.000722073
8 *56:26 *1457:A1 0.000441465
9 *56:26 *1457:A2 0
10 *56:26 *72:10 0.00138647
11 *56:26 *189:28 0.000243653
12 *56:26 *195:16 0.00015582
13 *56:26 *201:61 0.000951701
14 *56:26 *201:72 0.000337984
15 *56:26 *221:84 0
16 *1564:RESET_B *56:26 0.000162318
17 *1565:D *56:14 0.00045391
18 *1574:D *56:26 5.1674e-05
19 *1593:A *56:10 0
*RES
1 *1534:Y *56:10 7.235 
2 *56:10 *56:14 46.955 
3 *56:14 *56:26 48.66 
4 *56:26 *1568:RESET_B 1.4325 
*END

*D_NET *57 0.0164679
*CONN
*I *1569:RESET_B I *D sky130_fd_sc_hd__dfrtp_2
*I *1535:Y O *D sky130_fd_sc_hd__inv_2
*CAP
1 *1569:RESET_B 0.000609982
2 *1535:Y 0.000945087
3 *57:20 0.00248545
4 *57:12 0.00282056
5 *1569:RESET_B *1526:A 0.000422907
6 *1569:RESET_B *1569:CLK 0.00131242
7 *1569:RESET_B *196:37 0.000257075
8 *57:12 *1607:A 0.00159683
9 *57:12 *99:12 0.00170111
10 *57:20 *1439:C 0.000505646
11 *57:20 *1539:A 8.52883e-05
12 *57:20 *1572:RESET_B 0.000450715
13 *57:20 *1588:RESET_B 1.91597e-05
14 *57:20 *1591:D 9.10613e-05
15 *57:20 *120:30 0.000146574
16 *57:20 *190:31 0.000131878
17 *57:20 *190:35 4.66108e-05
18 *57:20 *190:69 2.03245e-05
19 *57:20 *210:14 0.00011201
20 *57:20 *213:35 3.96263e-05
21 *57:20 *213:61 9.91872e-06
22 *57:20 *226:31 0.00216712
23 *1569:D *1569:RESET_B 5.6314e-05
24 *1573:D *57:20 0.000101516
25 *1579:D *57:20 2.49909e-05
26 *35:16 *57:12 6.03272e-05
27 *35:20 *57:12 2.59482e-05
28 *42:8 *57:20 2.10214e-05
29 *48:12 *1569:RESET_B 0.000200386
*RES
1 *1535:Y *57:12 30.965 
2 *57:12 *57:20 43.255 
3 *57:20 *1569:RESET_B 15.9225 
*END

*D_NET *58 0.0295809
*CONN
*I *1570:RESET_B I *D sky130_fd_sc_hd__dfrtp_4
*I *1537:Y O *D sky130_fd_sc_hd__inv_2
*CAP
1 *1570:RESET_B 0.00855744
2 *1537:Y 0.00855744
3 *1570:RESET_B *1398:A1_N 0.000327355
4 *1570:RESET_B *1398:B2 0.000135877
5 *1570:RESET_B *1423:A 0.00154015
6 *1570:RESET_B *1498:A1 0.00255557
7 *1570:RESET_B *1507:B 0.000120586
8 *1570:RESET_B *1508:C 0.000224474
9 *1570:RESET_B *1510:B 6.29909e-05
10 *1570:RESET_B *1511:C 0
11 *1570:RESET_B *1533:A 0.000396243
12 *1570:RESET_B *1570:CLK 1.37141e-05
13 *1570:RESET_B *1586:RESET_B 0
14 *1570:RESET_B *1588:D 0.000116741
15 *1570:RESET_B *1588:RESET_B 0.000285901
16 *1570:RESET_B *1592:A 0.000409068
17 *1570:RESET_B *79:12 0.000656935
18 *1570:RESET_B *116:28 0.000288284
19 *1570:RESET_B *131:16 0.000652537
20 *1570:RESET_B *142:28 0.00225439
21 *1570:RESET_B *170:14 0.000566035
22 *1570:RESET_B *189:42 0.000124582
23 *1570:RESET_B *189:53 0.000350869
24 *1570:RESET_B *191:86 0.000563939
25 *1570:RESET_B *199:28 0.00020279
26 *1570:RESET_B *216:26 0.00011616
27 *1593:A *1570:RESET_B 0
28 *29:8 *1570:RESET_B 0.000500798
*RES
1 *1537:Y *1570:RESET_B 32.3379 
*END

*D_NET *59 0.00744056
*CONN
*I *1571:RESET_B I *D sky130_fd_sc_hd__dfrtp_4
*I *1538:Y O *D sky130_fd_sc_hd__inv_2
*CAP
1 *1571:RESET_B 0.00126339
2 *1538:Y 0.00126339
3 *1571:RESET_B *1427:A 0.000401664
4 *1571:RESET_B *1433:B 8.7152e-06
5 *1571:RESET_B *1448:B 0.000233929
6 *1571:RESET_B *1452:B 0.000456268
7 *1571:RESET_B *1517:C1 9.29698e-05
8 *1571:RESET_B *1571:CLK 8.52845e-05
9 *1571:RESET_B *95:82 0.000621072
10 *1571:RESET_B *97:22 0.000130367
11 *1571:RESET_B *105:44 0.000155489
12 *1571:RESET_B *147:114 7.21004e-05
13 *1571:RESET_B *147:118 0.00028899
14 *1571:RESET_B *147:149 0.000285069
15 *1571:RESET_B *180:143 0.000118479
16 *1571:RESET_B *185:35 0.000758176
17 *1571:RESET_B *185:41 0.000321976
18 *1571:RESET_B *187:50 0.00065141
19 *1571:RESET_B *213:61 0.000117093
20 *1569:D *1571:RESET_B 1.32711e-05
21 *1581:D *1571:RESET_B 0.000101454
*RES
1 *1538:Y *1571:RESET_B 41.4125 
*END

*D_NET *60 0.00363762
*CONN
*I *1572:RESET_B I *D sky130_fd_sc_hd__dfrtp_2
*I *1539:Y O *D sky130_fd_sc_hd__inv_2
*CAP
1 *1572:RESET_B 0.00122863
2 *1539:Y 0.00122863
3 *1572:RESET_B *72:10 0.000236416
4 *1572:RESET_B *120:30 0.000121038
5 *1572:RESET_B *201:46 0.000158337
6 *1572:RESET_B *201:61 0.000166088
7 *1579:D *1572:RESET_B 4.77719e-05
8 *57:20 *1572:RESET_B 0.000450715
*RES
1 *1539:Y *1572:RESET_B 22.745 
*END

*D_NET *61 0.0163983
*CONN
*I *1573:RESET_B I *D sky130_fd_sc_hd__dfrtp_1
*I *1540:Y O *D sky130_fd_sc_hd__inv_2
*CAP
1 *1573:RESET_B 0.00234793
2 *1540:Y 0.000445834
3 *61:10 0.00436942
4 *61:8 0.00246733
5 *1573:RESET_B *1392:A 0.000817491
6 *1573:RESET_B *1441:B 1.49225e-05
7 *1573:RESET_B *1462:B 0
8 *1573:RESET_B *1502:A 8.7152e-06
9 *1573:RESET_B *1591:CLK 0.000120832
10 *1573:RESET_B *1591:D 5.20881e-05
11 *1573:RESET_B *1591:RESET_B 0.000154333
12 *1573:RESET_B *130:38 0
13 *1573:RESET_B *165:16 0.000144493
14 *1573:RESET_B *204:10 4.82919e-05
15 *61:8 *195:16 0.00052197
16 *61:10 *132:16 0.00456842
17 *61:10 *195:18 8.27207e-05
18 seg[2] *1573:RESET_B 0
19 *1566:RESET_B *1573:RESET_B 0.000233463
*RES
1 *1540:Y *61:8 9.225 
2 *61:8 *61:10 54.2925 
3 *61:10 *1573:RESET_B 18.8319 
*END

*D_NET *62 0.0148718
*CONN
*I *1574:RESET_B I *D sky130_fd_sc_hd__dfrtp_1
*I *1541:Y O *D sky130_fd_sc_hd__inv_2
*CAP
1 *1574:RESET_B 0.000107331
2 *1541:Y 0.000316232
3 *62:10 0.00188962
4 *62:8 0.00209852
5 *1574:RESET_B *205:30 7.25921e-05
6 *62:8 *1457:A2 0.000196836
7 *62:8 *199:36 0.000222065
8 *62:10 *1608:A 0
9 *62:10 *78:10 0.00487505
10 *62:10 *132:16 0.00066115
11 *62:10 *195:18 0.00423719
12 *26:20 *62:10 0
13 *35:16 *62:10 0.00019525
*RES
1 *1541:Y *62:8 9.57 
2 *62:8 *62:10 70.74 
3 *62:10 *1574:RESET_B 3.7775 
*END

*D_NET *63 0.000544911
*CONN
*I *1575:RESET_B I *D sky130_fd_sc_hd__dfrtp_2
*I *1542:Y O *D sky130_fd_sc_hd__inv_2
*CAP
1 *1575:RESET_B 0.000128711
2 *1542:Y 0.000128711
3 *1575:RESET_B *1457:A2 0
4 *1575:RESET_B *1540:A 0.000193993
5 *1575:RESET_B *129:97 9.34954e-05
*RES
1 *1542:Y *1575:RESET_B 8.285 
*END

*D_NET *64 0.00184886
*CONN
*I *1576:RESET_B I *D sky130_fd_sc_hd__dfrtp_4
*I *1543:Y O *D sky130_fd_sc_hd__inv_2
*CAP
1 *1576:RESET_B 0.000274053
2 *1543:Y 0.000274053
3 *1576:RESET_B *1478:A 5.35034e-05
4 *1576:RESET_B *1478:B 4.66108e-05
5 *1576:RESET_B *1485:A1 0.000733663
6 *1576:RESET_B *149:6 4.38197e-05
7 *1576:RESET_B *180:143 0.000342551
8 *1576:D *1576:RESET_B 8.06075e-05
*RES
1 *1543:Y *1576:RESET_B 9.5875 
*END

*D_NET *65 0.0134659
*CONN
*I *1577:RESET_B I *D sky130_fd_sc_hd__dfrtp_4
*I *1544:Y O *D sky130_fd_sc_hd__inv_2
*CAP
1 *1577:RESET_B 0.00125458
2 *1544:Y 0.00095479
3 *65:20 0.00220937
4 *1577:RESET_B *1399:A 6.46111e-05
5 *1577:RESET_B *1410:B 0.00018886
6 *1577:RESET_B *1410:D 0.000516721
7 *1577:RESET_B *1416:A2 0.000175493
8 *1577:RESET_B *1438:A 0.000310776
9 *1577:RESET_B *1447:A 4.66108e-05
10 *1577:RESET_B *1447:B 8.23457e-05
11 *1577:RESET_B *1448:C 0.000228231
12 *1577:RESET_B *1451:A 0.00014892
13 *1577:RESET_B *1482:B 0.00036896
14 *1577:RESET_B *196:37 4.24292e-06
15 *1577:RESET_B *202:20 7.75848e-05
16 *1577:RESET_B *204:38 0.000449756
17 *1577:RESET_B *208:14 8.52845e-05
18 *1577:RESET_B *222:34 2.76356e-05
19 *1577:RESET_B *226:31 0.000128199
20 *65:20 *1448:A 0.000443265
21 *65:20 *1469:A 2.39856e-05
22 *65:20 *1469:B 0.000860062
23 *65:20 *1481:A 0.000860816
24 *65:20 *134:26 0.000114492
25 *65:20 *134:40 0.000332809
26 *65:20 *147:149 0.000214033
27 *65:20 *185:45 0.00012993
28 *65:20 *208:94 5.67745e-05
29 *65:20 *219:49 0.00102848
30 *65:20 *222:30 0.000728458
31 *42:12 *1577:RESET_B 0.000506349
32 *47:39 *1577:RESET_B 0.000166711
33 *47:56 *1577:RESET_B 4.82172e-06
34 *47:79 *65:20 0.000671977
*RES
1 *1544:Y *65:20 42.24 
2 *65:20 *1577:RESET_B 34.7875 
*END

*D_NET *66 0.0185949
*CONN
*I *1578:RESET_B I *D sky130_fd_sc_hd__dfrtp_4
*I *1545:Y O *D sky130_fd_sc_hd__inv_2
*CAP
1 *1578:RESET_B 0.000119303
2 *1545:Y 0.000258741
3 *66:28 0.00253488
4 *66:12 0.00390571
5 *66:8 0.00174887
6 *1578:RESET_B *1430:B 3.90192e-05
7 *1578:RESET_B *1486:A3 0.000119066
8 *66:8 *1545:A 0.000109898
9 *66:8 *156:6 8.23457e-05
10 *66:8 *156:25 2.32296e-05
11 *66:12 *1431:A 0.000271463
12 *66:12 *1451:D 3.63234e-05
13 *66:12 *1452:C 5.29521e-05
14 *66:12 *1461:A 7.21296e-06
15 *66:12 *1462:C 0.000455897
16 *66:12 *120:30 0.000266028
17 *66:12 *134:14 0.000301194
18 *66:12 *142:28 0.00130096
19 *66:12 *143:14 0.00101566
20 *66:12 *156:10 0.000116014
21 *66:12 *190:14 1.03572e-05
22 *66:12 *196:37 9.6405e-05
23 *66:12 *205:30 0.000592393
24 *66:12 *205:61 0.000663998
25 *66:12 *208:32 0.00180662
26 *66:28 *1462:B 0
27 *66:28 *114:14 0.00222649
28 *66:28 *145:8 0.000340773
29 *66:28 *209:60 0
30 *66:28 *218:10 0
31 *1561:RESET_B *66:12 9.30717e-05
32 *42:12 *66:12 0
*RES
1 *1545:Y *66:8 6.81 
2 *66:8 *66:12 49.79 
3 *66:12 *66:28 49.26 
4 *66:28 *1578:RESET_B 4.2125 
*END

*D_NET *67 0.0101123
*CONN
*I *1579:RESET_B I *D sky130_fd_sc_hd__dfrtp_2
*I *1546:Y O *D sky130_fd_sc_hd__inv_2
*CAP
1 *1579:RESET_B 0.00106405
2 *1546:Y 0.00268193
3 *67:12 0.00374598
4 *1579:RESET_B *77:14 0
5 *1579:RESET_B *129:64 0
6 *1579:RESET_B *130:38 5.89925e-05
7 *1579:RESET_B *200:61 0
8 *1579:RESET_B *200:90 0
9 *1579:RESET_B *202:49 0
10 *1579:RESET_B *211:87 0.000947185
11 *1579:RESET_B *221:12 0
12 *1579:RESET_B *221:45 0
13 *67:12 *1407:B 8.52972e-05
14 *67:12 *1459:C 0.000209198
15 *67:12 *1558:A 0.000252421
16 *67:12 *1566:CLK 9.33585e-05
17 *67:12 *180:29 4.89395e-05
18 *1564:RESET_B *1579:RESET_B 0.000701437
19 *1574:D *1579:RESET_B 0.000223543
*RES
1 *1546:Y *67:12 35.22 
2 *67:12 *1579:RESET_B 26.84 
*END

*D_NET *68 0.0140859
*CONN
*I *1580:RESET_B I *D sky130_fd_sc_hd__dfrtp_2
*I *1548:Y O *D sky130_fd_sc_hd__inv_2
*CAP
1 *1580:RESET_B 0.00146395
2 *1548:Y 0.00012356
3 *68:12 0.0027795
4 *68:8 0.00143911
5 *1580:RESET_B *1433:A 0.000122821
6 *1580:RESET_B *1433:B 0.000340791
7 *1580:RESET_B *1444:A 0.000119242
8 *1580:RESET_B *1445:A1 0.000187261
9 *1580:RESET_B *1519:A2 0.000897777
10 *1580:RESET_B *116:28 0.000217445
11 *1580:RESET_B *179:100 0.000193128
12 *1580:RESET_B *179:132 0.000897131
13 *68:8 *1436:A 6.06701e-05
14 *68:12 *1402:A 0
15 *68:12 *1402:B 0
16 *68:12 *1479:B 0.00101578
17 *68:12 *1485:B1 0.000773901
18 *68:12 *1485:C1 0.00195858
19 *68:12 *115:127 0.000470791
20 *68:12 *116:28 5.37209e-05
21 *68:12 *181:103 0.000195026
22 *68:12 *191:86 0.000775719
*RES
1 *1548:Y *68:8 5.085 
2 *68:8 *68:12 48.515 
3 *68:12 *1580:RESET_B 32.8425 
*END

*D_NET *69 0.00284565
*CONN
*I *1581:RESET_B I *D sky130_fd_sc_hd__dfrtp_2
*I *1549:Y O *D sky130_fd_sc_hd__inv_2
*CAP
1 *1581:RESET_B 0.000829393
2 *1549:Y 0.000829393
3 *1581:RESET_B *1408:C 0.000561185
4 *1581:RESET_B *1414:A1 0.000177522
5 *1581:RESET_B *1433:B 0.000448155
6 *1581:RESET_B *1474:D 0
7 *1581:RESET_B *146:12 0
*RES
1 *1549:Y *1581:RESET_B 20.165 
*END

*D_NET *70 0.0110953
*CONN
*I *1582:RESET_B I *D sky130_fd_sc_hd__dfrtp_1
*I *1550:Y O *D sky130_fd_sc_hd__inv_2
*CAP
1 *1582:RESET_B 0
2 *1550:Y 8.62731e-05
3 *70:10 0.00198168
4 *70:8 0.00206795
5 *70:8 *1524:A2 0.000121541
6 *70:10 *1398:A1_N 0
7 *70:10 *1423:A 0.000375677
8 *70:10 *1479:C 7.63125e-05
9 *70:10 *1524:B1_N 0.000340573
10 *70:10 *1586:RESET_B 0.000605502
11 *70:10 *1588:D 0
12 *70:10 *1592:A 0
13 *70:10 *96:12 0.000360473
14 *70:10 *181:18 0.000556503
15 *70:10 *181:24 0.00011741
16 *70:10 *196:37 0.000133595
17 *70:10 *212:63 0.00238844
18 *70:10 *212:75 0.00139821
19 *70:10 *216:41 0.000485157
*RES
1 *1550:Y *70:8 4.74 
2 *70:8 *70:10 56.97 
3 *70:10 *1582:RESET_B 2 
*END

*D_NET *71 0.00446436
*CONN
*I *1583:RESET_B I *D sky130_fd_sc_hd__dfrtp_1
*I *1551:Y O *D sky130_fd_sc_hd__inv_2
*CAP
1 *1583:RESET_B 0.00160179
2 *1551:Y 0.00160179
3 *1583:RESET_B *1431:A 0.000119873
4 *1583:RESET_B *1452:C 0.000138926
5 *1583:RESET_B *1473:A 0.000256523
6 *1583:RESET_B *1509:A 2.49909e-05
7 *1583:RESET_B *1595:A 0.000101477
8 *1583:RESET_B *171:12 0.000555863
9 *1583:D *1583:RESET_B 2.68526e-05
10 *48:18 *1583:RESET_B 3.62646e-05
*RES
1 *1551:Y *1583:RESET_B 26.1725 
*END

*D_NET *72 0.0111236
*CONN
*I *1584:RESET_B I *D sky130_fd_sc_hd__dfrtp_4
*I *1552:Y O *D sky130_fd_sc_hd__inv_2
*CAP
1 *1584:RESET_B 0.000641521
2 *1552:Y 0.000544062
3 *72:10 0.00225388
4 *72:8 0.00215642
5 *1584:RESET_B *1423:A 0.00012328
6 *72:8 *203:18 4.55327e-05
7 *72:10 *1397:B 0.000131525
8 *72:10 *1421:A 0.000667368
9 *72:10 *1423:A 0
10 *72:10 *1495:A 0.000145127
11 *72:10 *1587:RESET_B 0.000562443
12 *72:10 *181:32 0.000436972
13 *72:10 *191:8 0
14 *72:10 *201:61 0.000216186
15 *72:10 *211:12 0.000844935
16 *72:10 *211:18 0.000731486
17 *1572:RESET_B *72:10 0.000236416
18 *56:26 *72:10 0.00138647
*RES
1 *1552:Y *72:8 9.225 
2 *72:8 *72:10 50.85 
3 *72:10 *1584:RESET_B 10.6775 
*END

*D_NET *73 0.00961907
*CONN
*I *1585:RESET_B I *D sky130_fd_sc_hd__dfrtp_4
*I *1553:Y O *D sky130_fd_sc_hd__inv_2
*CAP
1 *1585:RESET_B 0.000686376
2 *1553:Y 0.00131774
3 *73:16 0.00200411
4 *1585:RESET_B *1585:CLK 2.59926e-05
5 *1585:RESET_B *184:24 0.000131658
6 *1585:RESET_B *217:10 9.78516e-05
7 *1585:RESET_B *217:12 9.64037e-05
8 *73:16 *1396:A 0.000176816
9 *73:16 *1427:C 0.00212745
10 *73:16 *1489:A 0.000309799
11 *73:16 *1490:C 0.000754781
12 *73:16 *1586:RESET_B 0.000161216
13 *73:16 *1601:A 0.000168227
14 *73:16 *119:10 0.000451153
15 *73:16 *180:14 0.000588786
16 *73:16 *217:12 2.96334e-05
17 *73:16 *217:14 0.000233815
18 *73:16 *218:22 0.00013493
19 *1585:D *1585:RESET_B 0.000122331
*RES
1 *1553:Y *73:16 45.095 
2 *73:16 *1585:RESET_B 9.4875 
*END

*D_NET *74 0.0187215
*CONN
*I *1586:RESET_B I *D sky130_fd_sc_hd__dfrtp_1
*I *1554:Y O *D sky130_fd_sc_hd__inv_2
*CAP
1 *1586:RESET_B 0.00593733
2 *1554:Y 0.00593733
3 *1586:RESET_B *1423:A 0.000436582
4 *1586:RESET_B *1427:A 0.000113984
5 *1586:RESET_B *1427:C 0.00026361
6 *1586:RESET_B *1463:A 0
7 *1586:RESET_B *1494:C 0.000155582
8 *1586:RESET_B *1495:A 0.000958678
9 *1586:RESET_B *1497:B 0.000123038
10 *1586:RESET_B *1498:A1 0.000251074
11 *1586:RESET_B *1506:A2 0.000168785
12 *1586:RESET_B *1588:RESET_B 0.000286266
13 *1586:RESET_B *96:12 0.000311335
14 *1586:RESET_B *115:56 0.00013827
15 *1586:RESET_B *119:10 0
16 *1586:RESET_B *142:28 5.05097e-05
17 *1586:RESET_B *160:10 0.000387269
18 *1586:RESET_B *170:14 0.000288569
19 *1586:RESET_B *183:16 0.000115127
20 *1586:RESET_B *207:14 5.27744e-05
21 *1586:RESET_B *207:30 0.000171445
22 *1586:RESET_B *209:60 0.000248865
23 *1586:RESET_B *212:63 0.00024146
24 *1586:RESET_B *212:75 0.000245205
25 *1586:RESET_B *214:10 0.000171239
26 *1586:RESET_B *217:29 0.000113611
27 *1586:RESET_B *218:22 0.000104402
28 *1570:RESET_B *1586:RESET_B 0
29 *1582:D *1586:RESET_B 0.00010408
30 *1593:A *1586:RESET_B 2.03577e-05
31 *34:24 *1586:RESET_B 0.000311452
32 *39:14 *1586:RESET_B 0.000246597
33 *70:10 *1586:RESET_B 0.000605502
34 *73:16 *1586:RESET_B 0.000161216
*RES
1 *1554:Y *1586:RESET_B 33.6246 
*END

*D_NET *75 0.00577992
*CONN
*I *1587:RESET_B I *D sky130_fd_sc_hd__dfrtp_4
*I *1555:Y O *D sky130_fd_sc_hd__inv_2
*CAP
1 *1587:RESET_B 0.00139148
2 *1555:Y 0.00139148
3 *1587:RESET_B *1399:B 7.01211e-05
4 *1587:RESET_B *1400:A 0.000849962
5 *1587:RESET_B *1440:B 8.79086e-05
6 *1587:RESET_B *1472:A 0.000627311
7 *1587:RESET_B *156:25 8.39272e-05
8 *1587:RESET_B *176:47 0.000153638
9 *1587:RESET_B *181:28 0.000155928
10 *1587:RESET_B *181:32 5.16348e-05
11 *1587:RESET_B *211:18 0.00019909
12 *1561:D *1587:RESET_B 0.000154994
13 *72:10 *1587:RESET_B 0.000562443
*RES
1 *1555:Y *1587:RESET_B 38.3925 
*END

*D_NET *76 0.0130404
*CONN
*I *1588:RESET_B I *D sky130_fd_sc_hd__dfrtp_4
*I *1556:Y O *D sky130_fd_sc_hd__inv_2
*CAP
1 *1588:RESET_B 0.00142376
2 *1556:Y 0.00204181
3 *76:28 0.00346557
4 *1588:RESET_B *1492:B 7.69078e-05
5 *1588:RESET_B *1507:B 0.000447768
6 *1588:RESET_B *1517:D1 0.000848979
7 *1588:RESET_B *1588:D 0
8 *1588:RESET_B *1591:D 8.34031e-05
9 *1588:RESET_B *170:14 0.000381522
10 *1588:RESET_B *179:28 0.000280078
11 *1588:RESET_B *187:14 7.26734e-05
12 *1588:RESET_B *189:42 0.000781721
13 *1588:RESET_B *190:35 0.000296185
14 *1588:RESET_B *191:84 9.76407e-06
15 *1588:RESET_B *226:12 0.00016755
16 *76:28 *1404:B1 0.000112537
17 *76:28 *1410:B 3.9848e-05
18 *76:28 *1411:C 0.000392275
19 *76:28 *1468:A 0.000122797
20 *76:28 *1482:B 1.7635e-05
21 *76:28 *130:38 1.7635e-05
22 *76:28 *141:10 8.46717e-05
23 *76:28 *142:28 8.24986e-05
24 *76:28 *156:10 3.86814e-05
25 *76:28 *190:31 0.000113958
26 *76:28 *196:37 0.000623742
27 *76:28 *205:61 4.77807e-05
28 *1570:RESET_B *1588:RESET_B 0.000285901
29 *1586:RESET_B *1588:RESET_B 0.000286266
30 *47:56 *76:28 0.000377303
31 *57:20 *1588:RESET_B 1.91597e-05
*RES
1 *1556:Y *76:28 37.7389 
2 *76:28 *1588:RESET_B 36.5575 
*END

*D_NET *77 0.0103788
*CONN
*I *1589:RESET_B I *D sky130_fd_sc_hd__dfrtp_4
*I *1557:Y O *D sky130_fd_sc_hd__inv_2
*CAP
1 *1589:RESET_B 0.000246324
2 *1557:Y 0.00185932
3 *77:14 0.00210564
4 *1589:RESET_B *1591:RESET_B 0.000431333
5 *1589:RESET_B *183:6 0.00029063
6 *1589:RESET_B *183:8 0.00030022
7 *1589:RESET_B *188:20 8.23457e-05
8 *1589:RESET_B *190:18 9.5335e-05
9 *77:14 *1502:A 0.000322363
10 *77:14 *1512:A 0.000960761
11 *77:14 *1591:RESET_B 0.000217639
12 *77:14 *129:64 0.00046962
13 *77:14 *190:14 0.000372518
14 *77:14 *190:18 0.00050552
15 *77:14 *197:8 0.000183815
16 *77:14 *200:61 0.000701865
17 *77:14 *200:90 8.73389e-06
18 *77:14 *221:8 8.78289e-05
19 *77:14 *221:12 3.32209e-05
20 *1579:RESET_B *77:14 0
21 *1585:D *77:14 0.00110378
*RES
1 *1557:Y *77:14 49.82 
2 *77:14 *1589:RESET_B 8.3475 
*END

*D_NET *78 0.0126449
*CONN
*I *1590:RESET_B I *D sky130_fd_sc_hd__dfrtp_4
*I *1558:Y O *D sky130_fd_sc_hd__inv_2
*CAP
1 *1590:RESET_B 0.000407692
2 *1558:Y 0.000439855
3 *78:10 0.00162393
4 *78:8 0.00165609
5 *1590:RESET_B *189:28 0.000156758
6 seg[2] *78:10 0.000196308
7 seg[3] *78:10 1.88656e-05
8 seg[5] *78:10 1.88656e-05
9 *26:20 *78:10 0.00155607
10 *35:16 *78:10 0.000492685
11 *35:20 *78:10 0.00120274
12 *62:10 *78:10 0.00487505
*RES
1 *1558:Y *78:8 8.19 
2 *78:8 *78:10 56.205 
3 *78:10 *1590:RESET_B 8.0375 
*END

*D_NET *79 0.0165281
*CONN
*I *1591:RESET_B I *D sky130_fd_sc_hd__dfrtp_4
*I *1559:Y O *D sky130_fd_sc_hd__inv_2
*CAP
1 *1591:RESET_B 0.00295511
2 *1559:Y 0.00126499
3 *79:12 0.0042201
4 *1591:RESET_B *1498:A1 0.000159355
5 *1591:RESET_B *1512:A 0.000145855
6 *1591:RESET_B *1520:A 0.000111099
7 *1591:RESET_B *1589:D 7.31465e-05
8 *1591:RESET_B *183:8 1.19138e-05
9 *1591:RESET_B *183:10 0.000194345
10 *1591:RESET_B *183:16 2.51954e-05
11 *1591:RESET_B *188:20 8.34031e-05
12 *1591:RESET_B *209:60 0.000277149
13 *79:12 *1479:B 3.1562e-06
14 *79:12 *1559:A 0.000254204
15 *79:12 *131:16 0.000720456
16 *79:12 *170:14 0.0017015
17 *79:12 *181:103 0.000268739
18 *79:12 *191:86 0.000296722
19 *1566:RESET_B *1591:RESET_B 0
20 *1570:RESET_B *79:12 0.000656935
21 *1573:RESET_B *1591:RESET_B 0.000154333
22 *1589:RESET_B *1591:RESET_B 0.000431333
23 *29:8 *79:12 0.00230141
24 *77:14 *1591:RESET_B 0.000217639
*RES
1 *1559:Y *79:12 45.35 
2 *79:12 *1591:RESET_B 40.8175 
*END

*D_NET *80 0.0120699
*CONN
*I *1588:D I *D sky130_fd_sc_hd__dfrtp_4
*I *1404:Y O *D sky130_fd_sc_hd__a21oi_1
*CAP
1 *1588:D 0.00361459
2 *1404:Y 0.00361459
3 *1588:D *1449:A 0
4 *1588:D *1507:B 0.000178719
5 *1588:D *1592:A 0.000440569
6 *1588:D *94:26 0.000457188
7 *1588:D *95:32 0.000268213
8 *1588:D *135:20 0.000280669
9 *1588:D *142:28 0.000251245
10 *1588:D *189:42 0.000356549
11 *1588:D *191:84 1.34618e-05
12 *1588:D *204:10 1.66065e-05
13 *1588:D *207:14 9.58678e-06
14 *1588:D *210:40 6.95753e-05
15 *1588:D *216:41 0.00197269
16 *1588:D *218:22 0.00010299
17 *1588:D *226:12 0.000259267
18 *1570:RESET_B *1588:D 0.000116741
19 *1581:D *1588:D 4.66637e-05
20 *1588:RESET_B *1588:D 0
21 *70:10 *1588:D 0
*RES
1 *1404:Y *1588:D 46.133 
*END

*D_NET *81 0.015685
*CONN
*I *1589:D I *D sky130_fd_sc_hd__dfrtp_4
*I *1402:Y O *D sky130_fd_sc_hd__nor2_1
*CAP
1 *1589:D 0.00165388
2 *1402:Y 0.00088675
3 *81:16 0.00270027
4 *81:12 0.00193314
5 *1589:D *1498:A1 1.19928e-05
6 *1589:D *183:10 6.35278e-05
7 *1589:D *183:16 0.000126695
8 *81:12 *1508:B 0
9 *81:12 *1524:A2 0.000321522
10 *81:12 *91:10 0
11 *81:12 *117:10 1.80324e-05
12 *81:12 *199:16 0.00114568
13 *81:16 *1508:B 0
14 *81:16 *84:38 0.00202845
15 *81:16 *116:28 0.000664119
16 *81:16 *117:10 0.000982861
17 *81:16 *148:10 0.00285708
18 *81:16 *159:8 3.3625e-05
19 *1508:A *81:12 6.26721e-05
20 *1591:RESET_B *1589:D 7.31465e-05
21 *36:20 *81:12 0.000121541
*RES
1 *1402:Y *81:12 22.6275 
2 *81:12 *81:16 45.0725 
3 *81:16 *1589:D 19.2288 
*END

*D_NET *82 0.00752244
*CONN
*I *1590:D I *D sky130_fd_sc_hd__dfrtp_4
*I *1400:X O *D sky130_fd_sc_hd__clkbuf_1
*CAP
1 *1590:D 0.00142719
2 *1400:X 0.00142719
3 *1590:D *1397:B 0.000671994
4 *1590:D *1400:A 8.0906e-05
5 *1590:D *1411:D 0.000159964
6 *1590:D *1472:A 0
7 *1590:D *1491:A 0.000543226
8 *1590:D *1590:CLK 6.81301e-05
9 *1590:D *98:37 0.00220393
10 *1590:D *130:38 0.000191142
11 *1590:D *203:31 0.000264537
12 *1590:D *206:26 0.000484234
13 *1580:D *1590:D 0
*RES
1 *1400:X *1590:D 45.24 
*END

*D_NET *83 0.00717192
*CONN
*I *1591:D I *D sky130_fd_sc_hd__dfrtp_4
*I *1394:Y O *D sky130_fd_sc_hd__xnor2_1
*CAP
1 *1591:D 0.00185702
2 *1394:Y 0.00185702
3 *1591:D *1499:A 0.00104085
4 *1591:D *1591:CLK 0.000341408
5 *1591:D *163:16 3.1562e-06
6 *1591:D *175:18 0.000791593
7 *1591:D *183:96 0.000183522
8 *1591:D *183:103 9.5335e-05
9 *1591:D *190:31 0.000180052
10 *1591:D *210:40 0.000194299
11 *1591:D *213:61 0.000401111
12 *1573:RESET_B *1591:D 5.20881e-05
13 *1588:RESET_B *1591:D 8.34031e-05
14 *57:20 *1591:D 9.10613e-05
*RES
1 *1394:Y *1591:D 41.43 
*END

*D_NET *84 0.02633
*CONN
*I *1398:B1 I *D sky130_fd_sc_hd__o2bb2a_1
*I *1402:A I *D sky130_fd_sc_hd__nor2_1
*I *1393:B I *D sky130_fd_sc_hd__nand2_1
*I *1392:X O *D sky130_fd_sc_hd__and3_2
*CAP
1 *1398:B1 0
2 *1402:A 0.00142976
3 *1393:B 0.000678941
4 *1392:X 0.00207812
5 *84:40 0.00231913
6 *84:38 0.00141876
7 *84:26 0.00189617
8 *84:18 0.00276596
9 *1393:B *189:42 0.000230032
10 *1402:A *1402:B 0.000134785
11 *1402:A *1479:B 0
12 *1402:A *1508:B 0.00136512
13 *1402:A *130:38 3.98126e-05
14 *1402:A *142:28 0
15 *1402:A *181:103 0
16 *84:18 *1419:A 0.00105347
17 *84:18 *1473:A 0.000201503
18 *84:18 *1494:A 0.000560172
19 *84:18 *1494:C 0.000258871
20 *84:18 *1497:D 0.000266164
21 *84:18 *1511:B 0.00160568
22 *84:18 *1511:C 0.000114342
23 *84:18 *1514:C1 0.000161742
24 *84:18 *105:52 0.000233986
25 *84:18 *115:30 0.000161742
26 *84:26 *1398:A1_N 0.000354235
27 *84:26 *1398:A2_N 4.76126e-05
28 *84:26 *1398:B2 4.99999e-05
29 *84:26 *1494:A 1.61831e-05
30 *84:38 *116:28 0.000841323
31 *84:38 *117:10 0.00315877
32 *84:38 *148:10 0.000639202
33 *84:40 *1508:B 0.000219964
34 *84:40 *181:103 0
35 *68:12 *1402:A 0
36 *81:16 *84:38 0.00202845
*RES
1 *1392:X *84:18 48.695 
2 *84:18 *84:26 9.555 
3 *84:26 *84:38 48.045 
4 *84:38 *84:40 4.695 
5 *84:40 *1393:B 13.365 
6 *84:40 *1402:A 34.56 
7 *84:26 *1398:B1 1.6 
*END

*D_NET *85 0.00946848
*CONN
*I *1399:A I *D sky130_fd_sc_hd__and2_1
*I *1394:B I *D sky130_fd_sc_hd__xnor2_1
*I *1393:Y O *D sky130_fd_sc_hd__nand2_1
*CAP
1 *1399:A 0.00142996
2 *1394:B 0.000293375
3 *1393:Y 0.00105235
4 *85:10 0.00277569
5 *1394:B *133:30 0
6 *1394:B *190:35 0.000161467
7 *1394:B *213:35 0.000441646
8 *1394:B *226:31 0.00016031
9 *1399:A *1438:A 0.000469534
10 *1399:A *100:16 0.000266618
11 *1399:A *176:47 0.000346016
12 *1399:A *190:69 0.000215606
13 *1399:A *222:34 8.35106e-05
14 *1399:A *223:35 0.000173755
15 *1399:A *227:26 9.12494e-06
16 *85:10 *92:16 0.000131554
17 *85:10 *180:143 6.58339e-05
18 *85:10 *189:32 4.30606e-05
19 *85:10 *189:42 2.65814e-06
20 *85:10 *194:14 2.66148e-05
21 *85:10 *213:35 0.000175234
22 *1563:RESET_B *1399:A 0.000637303
23 *1576:D *1399:A 0.000442645
24 *1577:RESET_B *1399:A 6.46111e-05
25 *23:18 *1394:B 0
26 *23:18 *85:10 0
*RES
1 *1393:Y *85:10 16.2 
2 *85:10 *1394:B 10.545 
3 *85:10 *1399:A 31.975 
*END

*D_NET *86 0.022534
*CONN
*I *1519:B1 I *D sky130_fd_sc_hd__a21oi_1
*I *1396:B I *D sky130_fd_sc_hd__nand2_2
*I *1395:Y O *D sky130_fd_sc_hd__nor2_2
*CAP
1 *1519:B1 0.000594515
2 *1396:B 0
3 *1395:Y 0
4 *86:18 0.00168827
5 *86:16 0.00228017
6 *86:4 0.00118642
7 *1519:B1 *1395:B 4.7878e-05
8 *1519:B1 *1474:A 0.00102277
9 *1519:B1 *1474:B 5.33373e-05
10 *1519:B1 *1474:C 0.000211912
11 *1519:B1 *1505:B1 0.000956511
12 *1519:B1 *102:12 0.000104452
13 *1519:B1 *185:8 0.000120303
14 *1519:B1 *186:27 0.000870555
15 *86:16 *1424:A 8.66954e-06
16 *86:16 *1445:B1 0.000531502
17 *86:16 *1469:A 9.14049e-05
18 *86:16 *1480:A 0.000231819
19 *86:16 *1504:B 0.000682859
20 *86:16 *1505:A1 0.000172522
21 *86:16 *103:33 0
22 *86:16 *132:8 0.000230656
23 *86:16 *212:28 0.0011418
24 *86:18 *1424:A 1.33509e-05
25 *86:18 *1448:C 0.000752336
26 *86:18 *1502:A 0.000167993
27 *86:18 *1504:B 1.94654e-05
28 *86:18 *1505:A1 0.000175475
29 *86:18 *87:18 0.00378944
30 *86:18 *122:30 0.000250229
31 *86:18 *155:24 0.000320555
32 *86:18 *222:30 1.79536e-05
33 *86:18 *222:36 0.00402896
34 *86:18 *224:12 0.000156959
35 *1505:C1 *1519:B1 0.000612979
*RES
1 *1395:Y *86:4 1.6 
2 *86:4 *86:16 21.4775 
3 *86:16 *86:18 60.9225 
4 *86:18 *1396:B 3.6 
5 *86:4 *1519:B1 28.79 
*END

*D_NET *87 0.0316371
*CONN
*I *1397:B I *D sky130_fd_sc_hd__nor2_2
*I *1403:A2 I *D sky130_fd_sc_hd__a21oi_1
*I *1524:B1_N I *D sky130_fd_sc_hd__a21boi_2
*I *1396:Y O *D sky130_fd_sc_hd__nand2_2
*CAP
1 *1397:B 0.00222951
2 *1403:A2 0
3 *1524:B1_N 0.000413665
4 *1396:Y 2.40664e-05
5 *87:34 0.00132456
6 *87:26 0.00333135
7 *87:18 0.00225494
8 *87:8 0.00208806
9 *1397:B *1395:B 7.01575e-05
10 *1397:B *1397:A 0.000447471
11 *1397:B *1408:B 0.000227078
12 *1397:B *1421:A 0.000132946
13 *1397:B *1502:A 0.000252487
14 *1397:B *88:12 0.000563499
15 *1397:B *102:12 0
16 *1397:B *224:18 0.000987838
17 *1397:B *225:75 0.000681858
18 *1524:B1_N *1524:A1 0.000468085
19 *1524:B1_N *117:8 0.000935436
20 *1524:B1_N *181:18 0.000342233
21 *1524:B1_N *212:30 0.000241849
22 *87:8 *1396:A 4.77769e-05
23 *87:18 *1419:A 0
24 *87:18 *1497:A 4.94404e-05
25 *87:18 *1497:D 9.0444e-05
26 *87:18 *1502:A 0.00162523
27 *87:18 *1505:A1 0.00139497
28 *87:18 *210:40 0
29 *87:18 *222:36 2.3228e-05
30 *87:18 *224:12 0.00289737
31 *87:26 *1445:B1 8.53768e-05
32 *87:26 *221:84 0.000177938
33 *87:26 *224:18 0.000158472
34 *87:26 *225:75 0.000158472
35 *87:34 *1403:B1 0.000593126
36 *87:34 *92:16 0.000519872
37 *87:34 *187:138 0.00155051
38 *87:34 *212:28 0.000235339
39 *87:34 *212:30 7.88945e-05
40 *1590:D *1397:B 0.000671994
41 *70:10 *1524:B1_N 0.000340573
42 *72:10 *1397:B 0.000131525
43 *86:18 *87:18 0.00378944
*RES
1 *1396:Y *87:8 4.05 
2 *87:8 *87:18 49.9078 
3 *87:18 *87:26 3.3177 
4 *87:26 *87:34 23.555 
5 *87:34 *1524:B1_N 20.495 
6 *87:34 *1403:A2 1.6 
7 *87:26 *1397:B 47.98 
*END

*D_NET *88 0.0238943
*CONN
*I *1518:A I *D sky130_fd_sc_hd__nor2_1
*I *1517:B1 I *D sky130_fd_sc_hd__a2111o_1
*I *1398:A2_N I *D sky130_fd_sc_hd__o2bb2a_1
*I *1397:Y O *D sky130_fd_sc_hd__nor2_2
*CAP
1 *1518:A 0
2 *1517:B1 0
3 *1398:A2_N 0.00177233
4 *1397:Y 0.00102341
5 *88:34 0.00271097
6 *88:24 0.00203996
7 *88:12 0.00212473
8 *1398:A2_N *1436:A 0.00106765
9 *1398:A2_N *1508:B 3.6227e-05
10 *1398:A2_N *1517:A2 3.18155e-05
11 *1398:A2_N *1553:A 0
12 *1398:A2_N *89:14 4.32126e-05
13 *1398:A2_N *181:103 0
14 *88:12 *1397:A 3.47556e-05
15 *88:12 *1416:A2 0.000175475
16 *88:12 *1425:C 0.000340189
17 *88:12 *1440:A 0.000308999
18 *88:12 *1442:B 0.00078803
19 *88:12 *1458:B 8.58109e-05
20 *88:24 *1424:A 0.000122797
21 *88:24 *1483:A 0.000518048
22 *88:24 *1483:B 4.82919e-05
23 *88:24 *1485:A1 3.59784e-05
24 *88:24 *1518:B 4.89295e-05
25 *88:24 *134:14 0.00022707
26 *88:24 *139:14 8.64421e-05
27 *88:24 *147:149 0.000103561
28 *88:24 *181:24 2.58336e-05
29 *88:24 *203:31 4.66826e-05
30 *88:24 *203:37 0.000144296
31 *88:24 *203:45 0.000744347
32 *88:24 *207:122 5.1875e-05
33 *88:24 *213:35 0.000153263
34 *88:34 *1405:A 0.000482948
35 *88:34 *1424:A 0.000480743
36 *88:34 *1454:A 0.000837829
37 *88:34 *1498:A1 0.000114662
38 *88:34 *1517:A2 0.000739329
39 *88:34 *1517:C1 0.000703083
40 *88:34 *1517:D1 0.000489966
41 *88:34 *105:12 1.82789e-05
42 *88:34 *181:24 0.000487439
43 *88:34 *187:22 0.000500465
44 *1397:B *88:12 0.000563499
45 *23:18 *88:24 0
46 *42:12 *88:12 0.00153043
47 *43:26 *88:12 0.00152701
48 *51:14 *88:24 0.000430044
49 *84:26 *1398:A2_N 4.76126e-05
*RES
1 *1397:Y *88:12 38.495 
2 *88:12 *88:24 29.23 
3 *88:24 *88:34 35.815 
4 *88:34 *1398:A2_N 38.135 
5 *88:34 *1517:B1 1.6 
6 *88:24 *1518:A 1.6 
*END

*D_NET *89 0.0171578
*CONN
*I *1399:B I *D sky130_fd_sc_hd__and2_1
*I *1398:X O *D sky130_fd_sc_hd__o2bb2a_1
*CAP
1 *1399:B 0.000902237
2 *1398:X 0.00138121
3 *89:18 0.0022362
4 *89:14 0.00271517
5 *1399:B *1400:A 3.6227e-05
6 *1399:B *1448:A 0.00077559
7 *1399:B *190:69 0.000114649
8 *89:14 *1494:B 0.000718327
9 *89:14 *1513:A1 0.00037683
10 *89:14 *1553:A 5.64507e-05
11 *89:14 *188:160 0.000638446
12 *89:18 *1463:A 0.000749371
13 *89:18 *1467:A 0.00126788
14 *89:18 *1476:A1 0.00292355
15 *89:18 *1484:A2 6.9117e-05
16 *89:18 *103:33 0
17 *89:18 *108:20 9.58678e-06
18 *89:18 *138:10 4.79685e-05
19 *89:18 *147:28 0.000943342
20 *89:18 *219:49 0
21 *89:18 *227:53 0.000294714
22 *1398:A2_N *89:14 4.32126e-05
23 *1576:D *89:18 0.000787623
24 *1587:RESET_B *1399:B 7.01211e-05
*RES
1 *1398:X *89:14 32.545 
2 *89:14 *89:18 48.005 
3 *89:18 *1399:B 17.435 
*END

*D_NET *90 0.00516404
*CONN
*I *1400:A I *D sky130_fd_sc_hd__clkbuf_1
*I *1399:X O *D sky130_fd_sc_hd__and2_1
*CAP
1 *1400:A 0.000838477
2 *1399:X 0.000838477
3 *1400:A *1411:D 0.00016163
4 *1400:A *1482:B 0.00124648
5 *1400:A *1487:A 0
6 *1400:A *98:37 0.000669908
7 *1400:A *130:38 0.000424169
8 *1400:A *190:69 1.78037e-05
9 *1399:B *1400:A 3.6227e-05
10 *1587:RESET_B *1400:A 0.000849962
11 *1590:D *1400:A 8.0906e-05
*RES
1 *1399:X *1400:A 35.26 
*END

*D_NET *91 0.0143842
*CONN
*I *1402:B I *D sky130_fd_sc_hd__nor2_1
*I *1401:Y O *D sky130_fd_sc_hd__a21oi_1
*CAP
1 *1402:B 0.000620885
2 *1401:Y 0.00158564
3 *91:10 0.00284092
4 *91:8 0.00380567
5 *91:8 *1499:A 4.40028e-05
6 *91:8 *95:32 0.000232403
7 *91:8 *165:16 4.77719e-05
8 *91:8 *214:16 0.000308657
9 *91:10 *1524:A2 0.000134716
10 *91:10 *116:28 0.00114745
11 *91:10 *117:10 0.00348125
12 *1402:A *1402:B 0.000134785
13 *68:12 *1402:B 0
14 *81:12 *91:10 0
*RES
1 *1401:Y *91:8 25.785 
2 *91:8 *91:10 52.125 
3 *91:10 *1402:B 15.445 
*END

*D_NET *92 0.013634
*CONN
*I *1404:B1 I *D sky130_fd_sc_hd__a21oi_1
*I *1403:Y O *D sky130_fd_sc_hd__a21oi_1
*CAP
1 *1404:B1 0.00101477
2 *1403:Y 0.000909693
3 *92:16 0.00192447
4 *1404:B1 *1404:A2 0.000156758
5 *1404:B1 *165:16 0.00136452
6 *1404:B1 *175:18 0.000162096
7 *1404:B1 *179:18 0.000340986
8 *1404:B1 *179:28 3.91308e-05
9 *1404:B1 *180:29 0.0015252
10 *1404:B1 *180:123 0.000380945
11 *1404:B1 *187:61 0.00121774
12 *1404:B1 *190:31 0.000137048
13 *1404:B1 *190:69 0.000125686
14 *1404:B1 *219:49 0.000107666
15 *1404:B1 *220:10 0.000998339
16 *92:16 *1450:B1 0.00102829
17 *92:16 *1454:B 0
18 *92:16 *1463:A 0.000185099
19 *92:16 *180:143 5.83121e-06
20 *92:16 *187:117 0.00012081
21 *92:16 *189:32 0.000709423
22 *92:16 *191:72 0
23 *92:16 *191:84 0
24 *92:16 *194:14 0.000126494
25 *92:16 *207:122 0.000289011
26 *76:28 *1404:B1 0.000112537
27 *85:10 *92:16 0.000131554
28 *87:34 *92:16 0.000519872
*RES
1 *1403:Y *92:16 31.54 
2 *92:16 *1404:B1 41.565 
*END

*D_NET *93 0.022689
*CONN
*I *1513:A1 I *D sky130_fd_sc_hd__a21o_1
*I *1417:A1 I *D sky130_fd_sc_hd__a21bo_2
*I *1405:Y O *D sky130_fd_sc_hd__inv_2
*CAP
1 *1513:A1 0.00121484
2 *1417:A1 0.000187738
3 *1405:Y 0.00391634
4 *93:51 0.00369713
5 *93:18 0.00658638
6 *1417:A1 *1505:A1 2.59524e-05
7 *1417:A1 *1517:C1 2.22899e-05
8 *1417:A1 *1569:CLK 1.9873e-05
9 *1513:A1 *1392:C 0.000253063
10 *1513:A1 *1513:A2 0.000316295
11 *1513:A1 *1513:B1 0.000674819
12 *1513:A1 *1567:CLK 0.000607461
13 *1513:A1 *170:47 0.00053431
14 *1513:A1 *188:160 0.00129135
15 *1513:A1 *224:8 0.000277733
16 *93:18 *1452:B 0
17 *93:18 *97:44 0.000159821
18 *93:18 *151:18 7.4027e-05
19 *93:18 *185:20 0.00020282
20 *93:51 *1407:D 0.000527957
21 *93:51 *1429:B1 7.77167e-06
22 *93:51 *1463:A 0.00012373
23 *93:51 *1505:A1 9.9797e-05
24 *93:51 *1515:A 0.000139349
25 *93:51 *175:18 0.000521833
26 *93:51 *188:160 8.99337e-05
27 *93:51 *190:31 0.000220999
28 *93:51 *220:10 4.64292e-05
29 *47:12 *93:51 0.000315803
30 *47:174 *93:51 0.00015635
31 *89:14 *1513:A1 0.00037683
*RES
1 *1405:Y *93:18 15.2759 
2 *93:18 *1417:A1 4.82943 
3 *93:18 *93:51 17.6842 
4 *93:51 *1513:A1 37.255 
*END

*D_NET *94 0.0110027
*CONN
*I *1416:A1 I *D sky130_fd_sc_hd__o211ai_2
*I *1406:X O *D sky130_fd_sc_hd__a21o_1
*CAP
1 *1416:A1 9.35766e-05
2 *1406:X 0.00251661
3 *94:26 0.00261019
4 *1416:A1 *1412:D 9.70285e-05
5 *1416:A1 *95:32 4.79712e-05
6 *1416:A1 *201:38 0.000155491
7 *1416:A1 *205:30 6.51658e-05
8 *94:26 *1406:A1 0.000159179
9 *94:26 *1406:A2 0.00041311
10 *94:26 *1429:A1 0.000158564
11 *94:26 *1430:C 1.41165e-05
12 *94:26 *1449:A 1.18547e-05
13 *94:26 *1463:A 0.000113298
14 *94:26 *1497:D 0.000151394
15 *94:26 *1502:A 6.90868e-05
16 *94:26 *122:30 0.00060307
17 *94:26 *135:20 0.000614854
18 *94:26 *163:12 0
19 *94:26 *165:16 1.8249e-05
20 *94:26 *211:108 1.96753e-05
21 *94:26 *219:23 0.000561642
22 *94:26 *222:36 0.00200847
23 *1566:RESET_B *94:26 4.28901e-05
24 *1588:D *94:26 0.000457188
*RES
1 *1406:X *94:26 48.2199 
2 *94:26 *1416:A1 6.12 
*END

*D_NET *95 0.0358597
*CONN
*I *1437:A2 I *D sky130_fd_sc_hd__a21oi_1
*I *1430:A_N I *D sky130_fd_sc_hd__and3b_1
*I *1409:A I *D sky130_fd_sc_hd__and2_2
*I *1433:B I *D sky130_fd_sc_hd__nand2_1
*I *1434:B I *D sky130_fd_sc_hd__or2_1
*I *1438:C I *D sky130_fd_sc_hd__and3_1
*I *1451:C I *D sky130_fd_sc_hd__and4_4
*I *1407:X O *D sky130_fd_sc_hd__and4_2
*CAP
1 *1437:A2 0.000268942
2 *1430:A_N 6.45119e-05
3 *1409:A 0
4 *1433:B 0.000663636
5 *1434:B 0
6 *1438:C 0.00143249
7 *1451:C 0.000201533
8 *1407:X 0.000134984
9 *95:123 0.00129658
10 *95:82 0.0017571
11 *95:70 0.00128128
12 *95:32 0.00340813
13 *95:16 0.00254548
14 *95:6 0.00168167
15 *1430:A_N *1486:A3 0.000349877
16 *1430:A_N *209:31 0.000237196
17 *1433:B *1414:A1 0.000507414
18 *1433:B *1427:A 0.000517936
19 *1433:B *1445:C1 3.26822e-05
20 *1433:B *1452:B 7.64402e-05
21 *1433:B *1538:A 1.08758e-05
22 *1433:B *1544:A 0.000199039
23 *1433:B *146:12 0
24 *1433:B *180:143 9.53428e-06
25 *1433:B *188:76 0
26 *1433:B *221:84 2.42043e-05
27 *1437:A2 *1486:A1 2.0514e-05
28 *1437:A2 *1486:A3 0.000103668
29 *1437:A2 *1486:A4 0.000132501
30 *1437:A2 *1486:B1 0.000122331
31 *1437:A2 *154:12 0.000450237
32 *1437:A2 *209:31 0.000419783
33 *1437:A2 *209:56 0.000318681
34 *1438:C *1417:A2 0.000123492
35 *1438:C *1438:A 0.000206039
36 *1438:C *1501:B 0.000888358
37 *1438:C *1513:A2 0.000291917
38 *1438:C *115:14 0.00104048
39 *1438:C *115:20 0.000145967
40 *1438:C *120:8 0.000263595
41 *1438:C *129:35 5.84759e-05
42 *1451:C *1452:C 1.37804e-05
43 *1451:C *1473:A 6.81984e-05
44 *1451:C *129:8 8.49205e-05
45 *1451:C *129:35 0.000144869
46 *95:16 *1497:B 0.000408788
47 *95:16 *193:14 1.64067e-05
48 *95:32 *1449:A 5.37266e-05
49 *95:32 *129:35 2.49909e-05
50 *95:32 *135:20 9.02927e-05
51 *95:32 *165:16 0.00203031
52 *95:32 *201:38 2.35435e-05
53 *95:32 *205:30 0.000118081
54 *95:70 *1415:D 0.000195861
55 *95:70 *1451:D 0.00019391
56 *95:70 *1497:B 0.000120396
57 *95:70 *187:50 0.000116158
58 *95:82 *1427:A 0.000996106
59 *95:82 *1449:A 0.000140314
60 *95:82 *97:44 4.12701e-05
61 *95:82 *105:44 9.11884e-05
62 *95:82 *105:52 0.000415621
63 *95:82 *185:35 0.000345204
64 *95:82 *185:41 0.000169361
65 *95:82 *188:45 0.000309779
66 *95:82 *188:76 0.00147563
67 *95:82 *221:84 4.66108e-05
68 *95:123 *1407:D 0
69 *95:123 *1430:C 0.000410899
70 *95:123 *1486:A2 0
71 *95:123 *1497:B 0.000798266
72 *95:123 *188:160 0.000533509
73 *1416:A1 *95:32 4.79712e-05
74 *1563:D *1451:C 3.39272e-05
75 *1566:RESET_B *1438:C 0.000278774
76 *1568:D *1438:C 0.000509732
77 *1568:D *1451:C 4.93614e-05
78 *1569:D *95:16 0.000119598
79 *1569:D *95:70 0.000127649
80 *1571:D *95:16 0.000424038
81 *1571:RESET_B *1433:B 8.7152e-06
82 *1571:RESET_B *95:82 0.000621072
83 *1580:RESET_B *1433:B 0.000340791
84 *1581:D *95:82 0.000331462
85 *1581:RESET_B *1433:B 0.000448155
86 *1588:D *95:32 0.000268213
87 *47:12 *95:123 0
88 *47:174 *95:6 0.000195108
89 *47:174 *95:16 0.000194891
90 *48:12 *95:82 0.000862316
91 *91:8 *95:32 0.000232403
*RES
1 *1407:X *95:6 3.43 
2 *95:6 *95:16 14.27 
3 *95:16 *95:32 34.365 
4 *95:32 *1451:C 9.23 
5 *95:32 *1438:C 38.945 
6 *95:16 *95:70 7.805 
7 *95:70 *95:82 41.92 
8 *95:82 *1434:B 1.6 
9 *95:82 *1433:B 23.03 
10 *95:70 *1409:A 1.6 
11 *95:6 *95:123 24.55 
12 *95:123 *1430:A_N 4.81 
13 *95:123 *1437:A2 13.12 
*END

*D_NET *96 0.0169037
*CONN
*I *1451:D I *D sky130_fd_sc_hd__and4_4
*I *1409:B I *D sky130_fd_sc_hd__and2_2
*I *1408:X O *D sky130_fd_sc_hd__and4_1
*CAP
1 *1451:D 0.00135713
2 *1409:B 1.92958e-05
3 *1408:X 0.000127617
4 *96:14 0.00147476
5 *96:12 0.00147859
6 *96:8 0.00150787
7 *1409:B *1415:D 9.03508e-06
8 *1451:D *1415:D 9.38165e-05
9 *1451:D *1416:B1 0.000388081
10 *1451:D *1451:A 0.000326429
11 *1451:D *1452:C 8.7152e-06
12 *1451:D *1499:B 0.000871883
13 *1451:D *103:8 0.00132722
14 *1451:D *129:35 1.96469e-05
15 *1451:D *142:28 0.000284969
16 *1451:D *201:36 0.000605651
17 *96:8 *1408:A 4.66108e-05
18 *96:8 *1408:B 5.99393e-05
19 *96:8 *1408:D 0.000121026
20 *96:12 *1405:A 0
21 *96:12 *1423:A 0.000298073
22 *96:12 *1424:A 0.000632718
23 *96:12 *1479:C 0.00052098
24 *96:12 *1506:A2 0.00211725
25 *96:12 *149:25 0.000228924
26 *96:12 *160:10 0.000322665
27 *96:12 *185:20 0
28 *96:12 *212:63 0.000943294
29 *96:14 *1415:D 0.000395989
30 *96:14 *103:8 0.000413464
31 *1586:RESET_B *96:12 0.000311335
32 *66:12 *1451:D 3.63234e-05
33 *70:10 *96:12 0.000360473
34 *95:70 *1451:D 0.00019391
*RES
1 *1408:X *96:8 6.12 
2 *96:8 *96:12 46.73 
3 *96:12 *96:14 3.9 
4 *96:14 *1409:B 1.96 
5 *96:14 *1451:D 38.9 
*END

*D_NET *97 0.0249565
*CONN
*I *1414:A2 I *D sky130_fd_sc_hd__o31a_1
*I *1445:C1 I *D sky130_fd_sc_hd__a211oi_1
*I *1450:A2 I *D sky130_fd_sc_hd__a21oi_2
*I *1446:B I *D sky130_fd_sc_hd__or2_1
*I *1447:B I *D sky130_fd_sc_hd__nand2_1
*I *1409:X O *D sky130_fd_sc_hd__and2_2
*CAP
1 *1414:A2 0.000692687
2 *1445:C1 0.000665132
3 *1450:A2 0
4 *1446:B 5.18678e-05
5 *1447:B 0.000359054
6 *1409:X 0.000127957
7 *97:53 0.00138408
8 *97:44 0.00110108
9 *97:22 0.00169606
10 *97:8 0.00248791
11 *1414:A2 *1414:A1 0.000607702
12 *1414:A2 *1414:B1 0.000688603
13 *1414:A2 *1498:A1 0.000168801
14 *1414:A2 *102:12 0.000575464
15 *1414:A2 *185:16 0
16 *1414:A2 *185:20 0
17 *1445:C1 *1445:A1 0.000121547
18 *1445:C1 *1445:B1 4.66108e-05
19 *1445:C1 *1452:B 0.000282607
20 *1445:C1 *1524:A2 9.80943e-06
21 *1445:C1 *115:106 0.000267158
22 *1445:C1 *146:12 0.000367849
23 *1445:C1 *151:18 0.000786646
24 *1445:C1 *188:113 0.000414905
25 *1445:C1 *221:84 0.000638634
26 *1445:C1 *221:98 4.66108e-05
27 *1445:C1 *225:75 0.000193113
28 *1446:B *1417:A2 5.39906e-05
29 *1446:B *125:12 0.000191335
30 *1446:B *225:30 8.41307e-05
31 *1447:B *1438:A 4.41506e-05
32 *1447:B *204:38 0.000996056
33 *1447:B *209:70 0.000614957
34 *1447:B *223:35 0.000145954
35 *97:8 *1503:A 0.000445159
36 *97:8 *147:16 7.53689e-05
37 *97:8 *147:22 0.00013687
38 *97:8 *188:32 0.00016787
39 *97:22 *1417:A2 0.000592035
40 *97:22 *1517:C1 0.000447005
41 *97:22 *1571:CLK 4.88478e-05
42 *97:22 *125:12 8.05167e-05
43 *97:22 *202:20 0.000170127
44 *97:22 *213:61 3.27888e-05
45 *97:22 *227:53 3.9232e-05
46 *97:44 *1403:A1 6.52819e-05
47 *97:44 *1427:A 5.98004e-06
48 *97:44 *1448:B 0.000803435
49 *97:44 *1449:A 0.000141471
50 *97:44 *1454:A 2.04875e-05
51 *97:44 *1498:A1 0.000425997
52 *97:44 *1503:A 0.000192355
53 *97:44 *105:12 0.000705268
54 *97:44 *151:18 7.23602e-05
55 *97:44 *185:20 0
56 *97:44 *187:22 0.000159294
57 *97:44 *188:32 7.30547e-05
58 *97:44 *188:45 0.000806827
59 *97:44 *188:76 0.00146967
60 *97:44 *221:98 0.000355201
61 *97:53 *1414:A1 1.07797e-05
62 *97:53 *185:20 0
63 *97:53 *221:98 3.09164e-05
64 *1433:B *1445:C1 3.26822e-05
65 *1561:D *1447:B 0.000367849
66 *1571:RESET_B *97:22 0.000130367
67 *1577:RESET_B *1447:B 8.23457e-05
68 *1581:D *1414:A2 0.00055264
69 *1581:D *1445:C1 0.000102863
70 *93:18 *97:44 0.000159821
71 *95:82 *97:44 4.12701e-05
*RES
1 *1409:X *97:8 8.805 
2 *97:8 *97:22 24.095 
3 *97:22 *1447:B 18.485 
4 *97:22 *1446:B 3.43 
5 *97:8 *97:44 35.04 
6 *97:44 *1450:A2 3.6 
7 *97:44 *97:53 0.615 
8 *97:53 *1445:C1 29.155 
9 *97:53 *1414:A2 23.535 
*END

*D_NET *98 0.0183065
*CONN
*I *1474:C I *D sky130_fd_sc_hd__and4_1
*I *1411:D I *D sky130_fd_sc_hd__or4_2
*I *1410:X O *D sky130_fd_sc_hd__and4_1
*CAP
1 *1474:C 0.00051904
2 *1411:D 0.00137489
3 *1410:X 0
4 *98:37 0.0015062
5 *98:6 0.00236205
6 *1411:D *1411:A 8.35106e-05
7 *1411:D *1606:A 5.41389e-05
8 *1411:D *108:20 0.00118148
9 *1411:D *129:64 0.000150871
10 *1411:D *181:51 8.46717e-05
11 *1411:D *200:90 0.000264133
12 *1411:D *210:14 2.97004e-06
13 *1411:D *211:87 5.05066e-06
14 *1474:C *1474:B 0.00281399
15 *1474:C *186:27 0.000377729
16 *98:37 *1482:B 0.000884395
17 *98:37 *1505:B2 0.000523953
18 *98:37 *130:38 0.000540014
19 *98:37 *206:10 0
20 *1400:A *1411:D 0.00016163
21 *1400:A *98:37 0.000669908
22 *1505:C1 *1474:C 0.00102752
23 *1508:A *1474:C 0.00107322
24 *1519:B1 *1474:C 0.000211912
25 *1564:RESET_B *1411:D 0
26 *1580:D *98:37 0
27 *1590:D *1411:D 0.000159964
28 *1590:D *98:37 0.00220393
29 *43:26 *98:37 6.93037e-05
*RES
1 *1410:X *98:6 3.6 
2 *98:6 *1411:D 33.5 
3 *98:6 *98:37 34.745 
4 *98:37 *1474:C 27.925 
*END

*D_NET *99 0.018787
*CONN
*I *1414:A3 I *D sky130_fd_sc_hd__o31a_1
*I *1411:X O *D sky130_fd_sc_hd__or4_2
*CAP
1 *1414:A3 0.00223119
2 *1411:X 0.00121232
3 *99:20 0.00287194
4 *99:12 0.00185307
5 *1414:A3 *1414:A1 0.000727801
6 *1414:A3 *1414:B1 0.000409855
7 *1414:A3 *102:12 0.000480393
8 *1414:A3 *180:71 0.000309612
9 *99:12 *1495:A 2.22427e-05
10 *99:12 *1523:A 0.000667457
11 *99:12 *1607:A 7.10462e-05
12 *99:12 *108:20 0.000603463
13 *99:12 *129:66 0
14 *99:12 *221:45 0.000374726
15 *99:20 *1457:B1 7.26348e-05
16 *99:20 *1474:A 0.00140989
17 *99:20 *1505:B2 0.000823846
18 *99:20 *1540:A 4.66108e-05
19 *99:20 *195:16 0.000292018
20 seg[4] *99:12 0.000115213
21 *1580:D *99:20 4.02438e-05
22 *26:20 *99:12 0.00128338
23 *35:16 *99:12 8.39076e-05
24 *42:12 *99:20 0.000542175
25 *43:26 *99:20 0.000540879
26 *57:12 *99:12 0.00170111
*RES
1 *1411:X *99:12 44.405 
2 *99:12 *99:20 26.455 
3 *99:20 *1414:A3 38.635 
*END

*D_NET *100 0.00986653
*CONN
*I *1413:C I *D sky130_fd_sc_hd__and4b_1
*I *1412:X O *D sky130_fd_sc_hd__and4b_1
*CAP
1 *1413:C 0.000161189
2 *1412:X 0.00120772
3 *100:16 0.00136891
4 *1413:C *1403:A1 0.000179525
5 *1413:C *1413:A_N 4.82863e-05
6 *1413:C *1413:D 0.000518889
7 *1413:C *227:26 8.247e-05
8 *100:16 *1452:B 0.000134122
9 *100:16 *1484:A2 0.000134509
10 *100:16 *103:33 0.000332209
11 *100:16 *168:14 0.000156016
12 *100:16 *176:47 9.37731e-05
13 *100:16 *179:75 0.000221291
14 *100:16 *189:32 0.000919903
15 *100:16 *194:14 0.000510737
16 *100:16 *204:21 0.000327698
17 *100:16 *204:38 0.00137845
18 *100:16 *209:60 0.000111819
19 *100:16 *210:22 6.87475e-05
20 *100:16 *223:35 0.000103539
21 *100:16 *225:30 0.000806521
22 *1399:A *100:16 0.000266618
23 *1561:D *100:16 1.95374e-05
24 *1563:RESET_B *100:16 7.36834e-05
25 *1576:D *100:16 0.000640355
*RES
1 *1412:X *100:16 48.67 
2 *100:16 *1413:C 8.535 
*END

*D_NET *101 0.00716986
*CONN
*I *1414:B1 I *D sky130_fd_sc_hd__o31a_1
*I *1413:X O *D sky130_fd_sc_hd__and4b_1
*CAP
1 *1414:B1 0.001503
2 *1413:X 0.001503
3 *1414:B1 *1403:A1 2.69272e-05
4 *1414:B1 *1414:A1 0.000727801
5 *1414:B1 *1454:B 0.0018632
6 *1414:B1 *1496:A 5.20626e-05
7 *1414:B1 *1519:A2 0
8 *1414:B1 *102:12 0.000395406
9 *1414:B1 *191:72 0
10 *1414:B1 *213:35 0
11 *1414:B1 *221:84 0
12 *1414:A2 *1414:B1 0.000688603
13 *1414:A3 *1414:B1 0.000409855
14 *36:20 *1414:B1 0
*RES
1 *1413:X *1414:B1 45.39 
*END

*D_NET *102 0.0193156
*CONN
*I *1416:A2 I *D sky130_fd_sc_hd__o211ai_2
*I *1414:X O *D sky130_fd_sc_hd__o31a_1
*CAP
1 *1416:A2 0.00212024
2 *1414:X 0.00282496
3 *102:12 0.00494521
4 *1416:A2 *1417:A2 5.23604e-05
5 *1416:A2 *1451:A 0.000209773
6 *1416:A2 *1462:C 0.00182103
7 *1416:A2 *1499:B 0.000179663
8 *1416:A2 *130:38 0.000742487
9 *1416:A2 *223:35 4.13379e-05
10 *102:12 *1395:B 0.000251219
11 *102:12 *1443:A 0
12 *102:12 *1480:A 0.000626041
13 *102:12 *176:47 3.18871e-05
14 *102:12 *185:8 0
15 *102:12 *223:35 0.000140709
16 *102:12 *225:75 0.000195436
17 *1397:B *102:12 0
18 *1414:A2 *102:12 0.000575464
19 *1414:A3 *102:12 0.000480393
20 *1414:B1 *102:12 0.000395406
21 *1519:B1 *102:12 0.000104452
22 *1566:RESET_B *1416:A2 0.00103103
23 *1567:D *1416:A2 2.08619e-05
24 *1577:RESET_B *1416:A2 0.000175493
25 *42:12 *1416:A2 0.000280618
26 *43:26 *1416:A2 0.00189405
27 *88:12 *1416:A2 0.000175475
*RES
1 *1414:X *102:12 49.0025 
2 *102:12 *1416:A2 14.1273 
*END

*D_NET *103 0.0199732
*CONN
*I *1504:A I *D sky130_fd_sc_hd__and2_2
*I *1416:B1 I *D sky130_fd_sc_hd__o211ai_2
*I *1415:X O *D sky130_fd_sc_hd__and4_1
*CAP
1 *1504:A 0.000993299
2 *1416:B1 0.00158083
3 *1415:X 0.00107706
4 *103:33 0.00213164
5 *103:8 0.00379624
6 *1416:B1 *1417:A2 0.00011379
7 *1416:B1 *1476:A1 5.47453e-05
8 *1416:B1 *201:36 0.000620161
9 *1416:B1 *227:53 5.28781e-05
10 *1504:A *1442:C 0
11 *1504:A *1445:A1 0.000304558
12 *1504:A *1466:A 0.000252348
13 *1504:A *1496:A 7.9642e-06
14 *1504:A *1504:B 0
15 *1504:A *1534:A 0.000689988
16 *1504:A *1596:A 1.12261e-05
17 *1504:A *115:91 9.71067e-05
18 *1504:A *115:100 8.59365e-05
19 *1504:A *122:32 0
20 *1504:A *133:30 0.000107433
21 *1504:A *179:75 5.44996e-05
22 *1504:A *185:16 4.66108e-05
23 *1504:A *199:28 4.66108e-05
24 *1504:A *212:28 7.12477e-05
25 *103:8 *1415:D 6.16774e-05
26 *103:33 *1452:B 0.000163288
27 *103:33 *1476:A1 0.000694031
28 *103:33 *1599:A 0.000191427
29 *103:33 *108:20 7.96104e-06
30 *103:33 *133:30 0.000252275
31 *103:33 *134:40 0.000989214
32 *103:33 *179:75 0.000271434
33 *103:33 *185:45 0.00113357
34 *103:33 *227:53 7.74849e-05
35 *1451:D *1416:B1 0.000388081
36 *1451:D *103:8 0.00132722
37 *1563:D *1416:B1 0.00011379
38 *1565:RESET_B *1504:A 1.11262e-05
39 *1566:RESET_B *1504:A 0.00117086
40 *1576:D *103:33 9.79559e-05
41 *47:39 *1416:B1 5.83121e-06
42 *47:105 *1504:A 7.40973e-05
43 *86:16 *103:33 0
44 *89:18 *103:33 0
45 *96:14 *103:8 0.000413464
46 *100:16 *103:33 0.000332209
*RES
1 *1415:X *103:8 21.645 
2 *103:8 *1416:B1 27.805 
3 *103:8 *103:33 32.4375 
4 *103:33 *1504:A 29.7825 
*END

*D_NET *104 0.0144774
*CONN
*I *1513:A2 I *D sky130_fd_sc_hd__a21o_1
*I *1417:A2 I *D sky130_fd_sc_hd__a21bo_2
*I *1416:Y O *D sky130_fd_sc_hd__o211ai_2
*CAP
1 *1513:A2 0.00126977
2 *1417:A2 0.00111626
3 *1416:Y 0
4 *104:4 0.00238603
5 *1417:A2 *1417:B1_N 0.00107155
6 *1417:A2 *1451:A 0.000265448
7 *1417:A2 *1451:B 0.000148893
8 *1417:A2 *1499:A 0.000664831
9 *1417:A2 *122:30 0.000175733
10 *1417:A2 *129:35 0.000127869
11 *1417:A2 *202:20 0.00158338
12 *1417:A2 *208:14 0.000486902
13 *1417:A2 *225:30 0.000159697
14 *1513:A2 *1490:B 0.00128437
15 *1513:A2 *1502:A 9.23578e-05
16 *1513:A2 *1567:CLK 0.00011577
17 *1513:A2 *115:20 0.000148297
18 *1513:A2 *115:30 0.000721276
19 *1513:A2 *129:35 0.000303575
20 *1416:A2 *1417:A2 5.23604e-05
21 *1416:B1 *1417:A2 0.00011379
22 *1438:C *1417:A2 0.000123492
23 *1438:C *1513:A2 0.000291917
24 *1446:B *1417:A2 5.39906e-05
25 *1513:A1 *1513:A2 0.000316295
26 *1563:D *1417:A2 4.29147e-05
27 *1573:D *1417:A2 0.0001774
28 *43:26 *1417:A2 0.000103334
29 *47:39 *1417:A2 0.000487861
30 *97:22 *1417:A2 0.000592035
*RES
1 *1416:Y *104:4 1.6 
2 *104:4 *1417:A2 47.01 
3 *104:4 *1513:A2 34.01 
*END

*D_NET *105 0.0340484
*CONN
*I *1432:A I *D sky130_fd_sc_hd__clkbuf_4
*I *1501:A I *D sky130_fd_sc_hd__and3_1
*I *1418:A I *D sky130_fd_sc_hd__inv_2
*I *1511:A I *D sky130_fd_sc_hd__and3_1
*I *1430:B I *D sky130_fd_sc_hd__and3b_1
*I *1427:B I *D sky130_fd_sc_hd__and3_1
*I *1494:A I *D sky130_fd_sc_hd__and3_1
*I *1448:B I *D sky130_fd_sc_hd__and3_1
*I *1423:B I *D sky130_fd_sc_hd__and3_1
*I *1417:X O *D sky130_fd_sc_hd__a21bo_2
*CAP
1 *1432:A 0.000928717
2 *1501:A 0.00060081
3 *1418:A 0
4 *1511:A 0
5 *1430:B 0.000439043
6 *1427:B 3.60103e-05
7 *1494:A 0.000304363
8 *1448:B 0.000616878
9 *1423:B 0.000352511
10 *1417:X 5.40082e-05
11 *105:121 0.00165603
12 *105:112 0.00177118
13 *105:77 0.00106369
14 *105:56 0.000898912
15 *105:52 0.00116458
16 *105:44 0.00290522
17 *105:12 0.00137026
18 *105:6 0.000556763
19 *1423:B *228:DIODE 5.73568e-06
20 *1423:B *108:30 7.3521e-05
21 *1423:B *131:16 3.62726e-05
22 *1423:B *187:22 4.66108e-05
23 *1427:B *180:14 2.69153e-05
24 *1430:B *1406:A1 0
25 *1430:B *1486:A3 3.02915e-05
26 *1430:B *1578:CLK 3.97438e-05
27 *1430:B *209:31 0.000237018
28 *1432:A *1530:A 4.66108e-05
29 *1432:A *1558:A 0.000229355
30 *1432:A *1563:CLK 0.000322084
31 *1432:A *115:8 0.000995105
32 *1432:A *165:35 4.14369e-05
33 *1432:A *165:39 0.000187391
34 *1432:A *184:112 7.21296e-06
35 *1432:A *186:72 0.000203769
36 *1432:A *186:74 0.000724659
37 *1432:A *189:28 0.000219495
38 *1448:B *1448:A 0.000139949
39 *1448:B *1498:A1 0.000187308
40 *1448:B *168:14 0.000263979
41 *1448:B *180:143 0.000233929
42 *1448:B *187:22 0.000796331
43 *1448:B *191:84 0.000141811
44 *1494:A *201:14 2.99953e-05
45 *1501:A *1501:C 0.000607623
46 *1501:A *1509:A 0.000300844
47 *1501:A *1509:B 1.08817e-05
48 *1501:A *165:35 0.000677837
49 *1501:A *184:84 2.49909e-05
50 *1501:A *201:46 0
51 *105:6 *1505:A1 3.83194e-05
52 *105:12 *1454:A 0.00064482
53 *105:12 *1503:A 0.000123748
54 *105:12 *1505:A1 5.83121e-06
55 *105:12 *187:22 2.82887e-05
56 *105:52 *1427:A 0.000407612
57 *105:52 *1511:C 9.06885e-05
58 *105:52 *147:10 1.92979e-05
59 *105:52 *193:14 0
60 *105:52 *201:14 0
61 *105:56 *201:14 1.88602e-05
62 *105:77 *1427:A 0.000765616
63 *105:77 *180:14 4.71087e-05
64 *105:77 *201:14 1.18243e-05
65 *105:112 *1471:C 0.000110165
66 *105:112 *1484:A2 0.000614473
67 *105:112 *106:8 0.00094914
68 *105:112 *213:61 0.000148485
69 *105:121 *184:108 0.000118081
70 *1498:C1 *105:52 4.77115e-05
71 *1560:D *1501:A 0
72 *1562:RESET_B *1432:A 0.000182947
73 *1562:RESET_B *1501:A 1.0397e-05
74 *1564:D *105:52 9.30787e-05
75 *1564:D *105:112 0.00143252
76 *1564:D *105:121 0.000286773
77 *1569:D *105:44 0.000328049
78 *1569:D *105:52 0.000871069
79 *1571:RESET_B *1448:B 0.000233929
80 *1571:RESET_B *105:44 0.000155489
81 *1577:D *1432:A 0.000302789
82 *1578:RESET_B *1430:B 3.90192e-05
83 *1579:D *1432:A 0.000941309
84 *1583:D *1501:A 4.13445e-05
85 *48:12 *105:52 0.000487854
86 *84:18 *1494:A 0.000560172
87 *84:18 *105:52 0.000233986
88 *84:26 *1494:A 1.61831e-05
89 *88:34 *105:12 1.82789e-05
90 *95:82 *105:44 9.11884e-05
91 *95:82 *105:52 0.000415621
92 *97:44 *1448:B 0.000803435
93 *97:44 *105:12 0.000705268
*RES
1 *1417:X *105:6 2.395 
2 *105:6 *105:12 13.04 
3 *105:12 *1423:B 7.5 
4 *105:12 *1448:B 25.09 
5 *105:6 *105:44 5.93 
6 *105:44 *105:52 30.23 
7 *105:52 *105:56 2.2325 
8 *105:56 *1494:A 9.9825 
9 *105:56 *105:77 13.9325 
10 *105:77 *1427:B 2.05 
11 *105:77 *1430:B 11.75 
12 *105:52 *1511:A 1.6 
13 *105:44 *105:112 35.615 
14 *105:112 *1418:A 1.6 
15 *105:112 *105:121 4.865 
16 *105:121 *1501:A 18.96 
17 *105:121 *1432:A 32.55 
*END

*D_NET *106 0.0196472
*CONN
*I *1445:B1 I *D sky130_fd_sc_hd__a211oi_1
*I *1419:A I *D sky130_fd_sc_hd__buf_4
*I *1418:Y O *D sky130_fd_sc_hd__inv_2
*CAP
1 *1445:B1 0.00183012
2 *1419:A 0.00110047
3 *1418:Y 0.00126024
4 *106:8 0.00419083
5 *1419:A *1464:A1 0.000178321
6 *1419:A *1499:B 0.000492784
7 *1419:A *1511:B 0.0010518
8 *1419:A *1594:A 3.92878e-05
9 *1419:A *119:10 0.000165031
10 *1419:A *135:20 0.000201173
11 *1419:A *210:40 0.00117072
12 *1419:A *224:12 0.00046394
13 *1445:B1 *1413:D 0.000118081
14 *1445:B1 *1424:A 8.32573e-06
15 *1445:B1 *1464:A1 0.000389077
16 *1445:B1 *1504:B 0.000519413
17 *1445:B1 *119:10 6.41907e-05
18 *1445:B1 *122:30 0.000100494
19 *1445:B1 *125:12 0.000337291
20 *1445:B1 *142:28 4.06524e-06
21 *1445:B1 *151:18 1.91597e-05
22 *1445:B1 *182:18 0.000364784
23 *1445:B1 *182:48 0.00145557
24 *1445:B1 *209:70 0.000216661
25 *1445:B1 *221:84 5.74686e-05
26 *1445:B1 *223:35 0.000675673
27 *1445:B1 *227:26 0.000147916
28 *106:8 *1471:C 0.000194891
29 *1445:C1 *1445:B1 4.66108e-05
30 *1561:D *1445:B1 0.000133012
31 *1567:D *1445:B1 1.08758e-05
32 *47:56 *1445:B1 1.94059e-05
33 *84:18 *1419:A 0.00105347
34 *86:16 *1445:B1 0.000531502
35 *87:18 *1419:A 0
36 *87:26 *1445:B1 8.53768e-05
37 *105:112 *106:8 0.00094914
*RES
1 *1418:Y *106:8 19.23 
2 *106:8 *1419:A 38.715 
3 *106:8 *1445:B1 27.4973 
*END

*D_NET *107 0.0177974
*CONN
*I *1423:A I *D sky130_fd_sc_hd__and3_1
*I *1421:Y O *D sky130_fd_sc_hd__nand2_1
*CAP
1 *1423:A 0.00560138
2 *1421:Y 0.00560138
3 *1423:A *1479:C 0.0001342
4 *1423:A *1498:A1 0
5 *1423:A *1534:A 0.000322656
6 *1423:A *133:30 0.000815879
7 *1423:A *142:28 0.000742266
8 *1423:A *181:18 0.000189046
9 *1423:A *191:8 4.05483e-05
10 *1423:A *207:14 1.87723e-05
11 *1423:A *212:63 0.000112246
12 *1423:A *216:22 0.000295743
13 *1423:A *216:41 2.05571e-05
14 *1570:RESET_B *1423:A 0.00154015
15 *1584:RESET_B *1423:A 0.00012328
16 *1586:RESET_B *1423:A 0.000436582
17 *1593:A *1423:A 0.00011265
18 *34:24 *1423:A 0.000789006
19 *36:20 *1423:A 0.000227313
20 *70:10 *1423:A 0.000375677
21 *72:10 *1423:A 0
22 *96:12 *1423:A 0.000298073
*RES
1 *1421:Y *1423:A 25.1427 
*END

*D_NET *108 0.0140195
*CONN
*I *1423:C I *D sky130_fd_sc_hd__and3_1
*I *228:DIODE I *D sky130_fd_sc_hd__diode_2
*I *1422:X O *D sky130_fd_sc_hd__or2_1
*CAP
1 *1423:C 1.84946e-05
2 *228:DIODE 9.5718e-05
3 *1422:X 0.00165818
4 *108:30 0.00159323
5 *108:20 0.00313719
6 *228:DIODE *131:16 0.000115233
7 *1423:C *131:16 1.09124e-05
8 *108:20 *129:64 8.35106e-05
9 *108:20 *221:45 9.08126e-05
10 *108:30 *1405:A 4.01548e-05
11 *108:30 *1516:C 0.00050668
12 *108:30 *131:16 0.000200712
13 *108:30 *160:10 4.24632e-05
14 *108:30 *207:14 0.000191361
15 *1411:D *108:20 0.00118148
16 *1423:B *228:DIODE 5.73568e-06
17 *1423:B *108:30 7.3521e-05
18 *1476:C1 *108:20 0.000231321
19 *1593:A *108:30 0.000225332
20 *26:8 *108:20 0.00348934
21 *34:24 *108:30 6.17446e-06
22 *47:64 *108:20 0.000400907
23 *89:18 *108:20 9.58678e-06
24 *99:12 *108:20 0.000603463
25 *103:33 *108:20 7.96104e-06
*RES
1 *1422:X *108:20 48.9075 
2 *108:20 *108:30 7.64597 
3 *108:30 *228:DIODE 3.49 
4 *108:30 *1423:C 1.96 
*END

*D_NET *109 0.00750763
*CONN
*I *1424:A I *D sky130_fd_sc_hd__clkbuf_1
*I *1423:X O *D sky130_fd_sc_hd__and3_1
*CAP
1 *1424:A 0.00225173
2 *1423:X 0.00225173
3 *1424:A *1413:D 2.00443e-05
4 *1424:A *1460:B 6.58423e-05
5 *1424:A *1518:B 5.84698e-05
6 *1424:A *1599:A 0
7 *1424:A *122:30 0.000525565
8 *1424:A *181:24 0.000199856
9 *1424:A *212:63 0.00063508
10 *1424:A *227:26 9.82856e-06
11 *1445:B1 *1424:A 8.32573e-06
12 *1587:D *1424:A 1.7882e-05
13 *47:79 *1424:A 0.000204992
14 *86:16 *1424:A 8.66954e-06
15 *86:18 *1424:A 1.33509e-05
16 *88:24 *1424:A 0.000122797
17 *88:34 *1424:A 0.000480743
18 *96:12 *1424:A 0.000632718
*RES
1 *1423:X *1424:A 47.335 
*END

*D_NET *110 0.0167279
*CONN
*I *1427:A I *D sky130_fd_sc_hd__and3_1
*I *1425:Y O *D sky130_fd_sc_hd__nand3_1
*CAP
1 *1427:A 0.00374649
2 *1425:Y 0.00374649
3 *1427:A *1406:B1 0.000175811
4 *1427:A *1414:A1 0.000134509
5 *1427:A *1425:A 0.000195856
6 *1427:A *1449:A 4.03791e-05
7 *1427:A *1495:A 0.000190285
8 *1427:A *1498:A1 0.00120054
9 *1427:A *1578:CLK 5.8684e-05
10 *1427:A *183:22 2.05583e-05
11 *1427:A *185:35 0.000268246
12 *1427:A *201:14 0.000517192
13 *1427:A *221:98 0.000186585
14 *1433:B *1427:A 0.000517936
15 *1569:D *1427:A 0.000104423
16 *1571:RESET_B *1427:A 0.000401664
17 *1581:D *1427:A 0.00264548
18 *1586:RESET_B *1427:A 0.000113984
19 *48:12 *1427:A 0.000287455
20 *95:82 *1427:A 0.000996106
21 *97:44 *1427:A 5.98004e-06
22 *105:52 *1427:A 0.000407612
23 *105:77 *1427:A 0.000765616
*RES
1 *1425:Y *1427:A 45.0696 
*END

*D_NET *111 0.00954266
*CONN
*I *1427:C I *D sky130_fd_sc_hd__and3_1
*I *1426:X O *D sky130_fd_sc_hd__a21o_1
*CAP
1 *1427:C 0.00317805
2 *1426:X 0.00317805
3 *1427:C *1553:A 7.49748e-05
4 *1427:C *1586:CLK 0.000663178
5 *1427:C *180:14 9.56017e-06
6 *1586:D *1427:C 4.77769e-05
7 *1586:RESET_B *1427:C 0.00026361
8 *73:16 *1427:C 0.00212745
*RES
1 *1426:X *1427:C 45.11 
*END

*D_NET *112 0.00343916
*CONN
*I *1428:A I *D sky130_fd_sc_hd__buf_1
*I *1427:X O *D sky130_fd_sc_hd__and3_1
*CAP
1 *1428:A 0.000495142
2 *1427:X 0.000495142
3 *1428:A *1486:A3 0.000412495
4 *1428:A *1578:CLK 0.000241695
5 *1428:A *115:56 0.000638695
6 *1428:A *183:22 0.000159046
7 *1428:A *207:30 0.000244928
8 *1428:A *217:29 0.000157325
9 *39:14 *1428:A 0.000594692
*RES
1 *1427:X *1428:A 25.065 
*END

*D_NET *113 0.00205219
*CONN
*I *1430:C I *D sky130_fd_sc_hd__and3b_1
*I *1429:X O *D sky130_fd_sc_hd__a31o_1
*CAP
1 *1430:C 0.000650582
2 *1429:X 0.000650582
3 *1430:C *1406:A2 0.000269925
4 *1430:C *1486:A3 4.77719e-05
5 *1430:C *114:14 8.30853e-06
6 *94:26 *1430:C 1.41165e-05
7 *95:123 *1430:C 0.000410899
*RES
1 *1429:X *1430:C 17.64 
*END

*D_NET *114 0.0112645
*CONN
*I *1431:A I *D sky130_fd_sc_hd__clkbuf_1
*I *1430:X O *D sky130_fd_sc_hd__and3b_1
*CAP
1 *1431:A 0.00106671
2 *1430:X 0.00180505
3 *114:14 0.00287176
4 *1431:A *1452:C 5.89787e-05
5 *1431:A *184:84 0.000121043
6 *1431:A *205:30 0.000344766
7 *1431:A *208:32 0.000689794
8 an[5] *1431:A 7.23602e-05
9 *1430:C *114:14 8.30853e-06
10 *1583:D *1431:A 1.91984e-05
11 *1583:RESET_B *1431:A 0.000119873
12 *1586:D *1431:A 9.05467e-05
13 *48:18 *1431:A 0.00149816
14 *66:12 *1431:A 0.000271463
15 *66:28 *114:14 0.00222649
*RES
1 *1430:X *114:14 32.38 
2 *114:14 *1431:A 31.77 
*END

*D_NET *115 0.0458326
*CONN
*I *1466:A I *D sky130_fd_sc_hd__and3_1
*I *1479:A I *D sky130_fd_sc_hd__and3_1
*I *1455:A I *D sky130_fd_sc_hd__and3_1
*I *1485:C1 I *D sky130_fd_sc_hd__o211a_1
*I *1442:A I *D sky130_fd_sc_hd__and3_1
*I *1490:A I *D sky130_fd_sc_hd__and3_1
*I *1471:A I *D sky130_fd_sc_hd__and3_1
*I *1435:A I *D sky130_fd_sc_hd__and3_1
*I *1514:B1 I *D sky130_fd_sc_hd__o211a_1
*I *1462:A I *D sky130_fd_sc_hd__and3_1
*I *1432:X O *D sky130_fd_sc_hd__clkbuf_4
*CAP
1 *1466:A 9.34183e-05
2 *1479:A 0
3 *1455:A 0.000108886
4 *1485:C1 0.000633537
5 *1442:A 0
6 *1490:A 2.54989e-05
7 *1471:A 0.000136151
8 *1435:A 0
9 *1514:B1 0
10 *1462:A 0.000499992
11 *1432:X 0.000962239
12 *115:127 0.00029281
13 *115:106 0.00273006
14 *115:100 0.00203671
15 *115:91 0.00235039
16 *115:56 0.00401071
17 *115:45 0.00404181
18 *115:30 0.00119629
19 *115:20 0.000954942
20 *115:14 0.000958
21 *115:8 0.00406085
22 *1455:A *229:DIODE 2.36386e-05
23 *1455:A *1455:C 0.000223477
24 *1455:A *130:38 1.1392e-05
25 *1455:A *132:8 8.61608e-05
26 *1462:A *1490:B 0.000183987
27 *1462:A *1514:C1 4.43871e-06
28 *1462:A *184:24 0
29 *1462:A *211:108 0.000653456
30 *1466:A *1408:B 4.66108e-05
31 *1466:A *1445:A1 0.000260879
32 *1466:A *224:18 4.66108e-05
33 *1471:A *230:DIODE 8.53769e-05
34 *1471:A *1471:C 5.49535e-05
35 *1471:A *1473:A 0.000157555
36 *1485:C1 *1485:A1 4.82919e-05
37 *1485:C1 *1485:A2 1.82271e-05
38 *1485:C1 *1559:A 1.03592e-05
39 *1485:C1 *116:28 0.00144131
40 *1485:C1 *191:84 1.197e-05
41 *1485:C1 *191:86 0.000482341
42 *115:8 *189:28 0.00010072
43 *115:14 *1472:A 0.00078076
44 *115:14 *1490:B 8.92701e-05
45 *115:14 *206:10 0.000381337
46 *115:20 *1490:B 0.000148991
47 *115:20 *1501:B 6.79319e-05
48 *115:30 *1490:B 0.000193838
49 *115:30 *1501:B 0.000418138
50 *115:30 *1502:A 9.23578e-05
51 *115:30 *1514:C1 7.20605e-05
52 *115:30 *1521:A 0.000189088
53 *115:30 *184:14 0
54 *115:30 *184:24 0
55 *115:30 *194:22 9.12977e-05
56 *115:56 *1435:C 8.29803e-05
57 *115:56 *1436:A 2.24791e-05
58 *115:56 *1497:B 0.000195745
59 *115:56 *1497:C 0.000237556
60 *115:56 *1497:D 0.000118081
61 *115:56 *1514:A2 3.71698e-05
62 *115:56 *147:34 6.71882e-05
63 *115:56 *163:12 0.000163204
64 *115:91 *1445:A1 9.54399e-05
65 *115:91 *1469:A 8.30967e-05
66 *115:91 *206:10 0.00140292
67 *115:100 *1445:A1 9.54399e-05
68 *115:106 *1524:A2 0.000180766
69 *115:106 *139:33 6.39787e-05
70 *115:106 *221:98 0.000232726
71 *115:106 *225:75 0.000660696
72 *115:127 *1455:C 4.51413e-05
73 *115:127 *1479:C 0.000107982
74 *115:127 *116:28 0.000478628
75 *115:127 *132:8 0.000196069
76 *1420:B *1490:A 4.82919e-05
77 *1428:A *115:56 0.000638695
78 *1432:A *115:8 0.000995105
79 *1438:C *115:14 0.00104048
80 *1438:C *115:20 0.000145967
81 *1445:C1 *115:106 0.000267158
82 *1504:A *1466:A 0.000252348
83 *1504:A *115:91 9.71067e-05
84 *1504:A *115:100 8.59365e-05
85 *1513:A2 *115:20 0.000148297
86 *1513:A2 *115:30 0.000721276
87 *1562:RESET_B *115:14 0
88 *1566:RESET_B *115:14 0.000222781
89 *1566:RESET_B *115:91 0.00013147
90 *1568:D *1471:A 0.000213735
91 *1568:D *115:14 6.95335e-05
92 *1576:D *115:91 2.52462e-05
93 *1586:D *115:56 5.34268e-05
94 *1586:RESET_B *115:56 0.00013827
95 *39:14 *115:56 0.000356798
96 *50:12 *115:14 4.24562e-05
97 *50:12 *115:91 0.00141075
98 *68:12 *1485:C1 0.00195858
99 *68:12 *115:127 0.000470791
100 *84:18 *115:30 0.000161742
*RES
1 *1432:X *115:8 15.78 
2 *115:8 *115:14 24.12 
3 *115:14 *115:20 4.485 
4 *115:20 *115:30 19.32 
5 *115:30 *1462:A 13.5 
6 *115:30 *115:45 2.45 
7 *115:45 *1514:B1 1.6 
8 *115:45 *115:56 48.69 
9 *115:56 *1435:A 1.6 
10 *115:20 *1471:A 7.515 
11 *115:14 *1490:A 4.05 
12 *115:8 *115:91 41.665 
13 *115:91 *1442:A 3.6 
14 *115:91 *115:100 1.125 
15 *115:100 *115:106 27.91 
16 *115:106 *1485:C1 28.59 
17 *115:106 *115:127 9.905 
18 *115:127 *1455:A 4.465 
19 *115:127 *1479:A 1.6 
20 *115:100 *1466:A 7.215 
*END

*D_NET *116 0.0206115
*CONN
*I *1435:B I *D sky130_fd_sc_hd__and3_1
*I *1433:Y O *D sky130_fd_sc_hd__nand2_1
*CAP
1 *1435:B 0
2 *1433:Y 0.00609
3 *116:28 0.00609
4 *116:28 *1433:A 7.11365e-05
5 *116:28 *1436:A 0.000140576
6 *116:28 *1553:A 0
7 *116:28 *117:10 0.0013572
8 *116:28 *131:16 0.000724776
9 *116:28 *148:10 0.000901865
10 *116:28 *191:84 0.000103671
11 *1485:C1 *116:28 0.00144131
12 *1570:RESET_B *116:28 0.000288284
13 *1580:RESET_B *116:28 0.000217445
14 *68:12 *116:28 5.37209e-05
15 *81:16 *116:28 0.000664119
16 *84:38 *116:28 0.000841323
17 *91:10 *116:28 0.00114745
18 *115:127 *116:28 0.000478628
*RES
1 *1433:Y *116:28 49.0059 
2 *116:28 *1435:B 1.6 
*END

*D_NET *117 0.0164688
*CONN
*I *1435:C I *D sky130_fd_sc_hd__and3_1
*I *1434:X O *D sky130_fd_sc_hd__or2_1
*CAP
1 *1435:C 0.000261225
2 *1434:X 0.00126853
3 *117:10 0.0017877
4 *117:8 0.002795
5 *1435:C *1436:A 1.99097e-05
6 *117:8 *1524:A1 0.000256717
7 *117:10 *148:10 6.31891e-05
8 *1524:B1_N *117:8 0.000935436
9 *81:12 *117:10 1.80324e-05
10 *81:16 *117:10 0.000982861
11 *84:38 *117:10 0.00315877
12 *91:10 *117:10 0.00348125
13 *115:56 *1435:C 8.29803e-05
14 *116:28 *117:10 0.0013572
*RES
1 *1434:X *117:8 19.575 
2 *117:8 *117:10 58.5 
3 *117:10 *1435:C 7.68 
*END

*D_NET *118 0.00577959
*CONN
*I *1436:A I *D sky130_fd_sc_hd__clkbuf_1
*I *1435:X O *D sky130_fd_sc_hd__and3_1
*CAP
1 *1436:A 0.00182232
2 *1435:X 0.00182232
3 *1436:A *148:10 0
4 *1436:A *153:8 0.000823661
5 *1398:A2_N *1436:A 0.00106765
6 *1435:C *1436:A 1.99097e-05
7 *68:8 *1436:A 6.06701e-05
8 *115:56 *1436:A 2.24791e-05
9 *116:28 *1436:A 0.000140576
*RES
1 *1435:X *1436:A 43.995 
*END

*D_NET *119 0.00920495
*CONN
*I *1439:B I *D sky130_fd_sc_hd__nor3_1
*I *1437:Y O *D sky130_fd_sc_hd__a21oi_1
*CAP
1 *1439:B 0
2 *1437:Y 0.00150292
3 *119:10 0.00150292
4 *119:10 *1396:A 0.00132808
5 *119:10 *1437:B1 0
6 *119:10 *1499:B 0.000256565
7 *119:10 *1512:A 0.000965472
8 *119:10 *125:12 0.00044773
9 *119:10 *154:12 0.00011964
10 *119:10 *182:18 0.000126391
11 *119:10 *189:80 0.000367205
12 *119:10 *209:60 0
13 *119:10 *209:70 0.000168374
14 *119:10 *210:40 0.000177757
15 *119:10 *218:22 0.00156153
16 *1419:A *119:10 0.000165031
17 *1445:B1 *119:10 6.41907e-05
18 *1586:RESET_B *119:10 0
19 *73:16 *119:10 0.000451153
*RES
1 *1437:Y *119:10 49.65 
2 *119:10 *1439:B 3.6 
*END

*D_NET *120 0.0169817
*CONN
*I *1440:B I *D sky130_fd_sc_hd__or2_1
*I *1439:C I *D sky130_fd_sc_hd__nor3_1
*I *1441:B I *D sky130_fd_sc_hd__nand2_1
*I *1438:X O *D sky130_fd_sc_hd__and3_1
*CAP
1 *1440:B 0.000569939
2 *1439:C 0.000256948
3 *1441:B 0.00111888
4 *1438:X 0.000202231
5 *120:30 0.00271118
6 *120:8 0.00210752
7 *1440:B *1421:A 0.000128593
8 *1440:B *1421:B 1.0397e-05
9 *1440:B *1425:C 1.84465e-05
10 *1440:B *1530:A 8.15598e-05
11 *1440:B *1558:A 0.000127799
12 *1440:B *165:39 0.000110727
13 *1440:B *181:28 0.000148092
14 *1440:B *181:32 0.000116165
15 *1440:B *200:100 0.00151103
16 *1440:B *211:18 0.00150479
17 *1441:B *1392:C 0.000177407
18 *1441:B *1449:A 0.000503711
19 *1441:B *1451:B 0.000915203
20 *1441:B *1462:B 0
21 *1441:B *1471:C 0.000496084
22 *1441:B *1502:A 0.000226926
23 *1441:B *1520:A 2.36679e-05
24 *1441:B *141:10 9.17974e-05
25 *1441:B *205:61 7.91584e-06
26 *1441:B *208:14 0.000153372
27 *1441:B *208:18 1.88602e-05
28 *1441:B *208:75 0.000115765
29 *1441:B *210:22 0
30 *120:30 *1539:A 8.64421e-05
31 *120:30 *1606:A 1.77665e-05
32 *120:30 *156:10 0.000267695
33 *120:30 *165:39 0.000113615
34 *120:30 *181:32 0.000289691
35 *120:30 *210:14 1.13785e-05
36 *1438:C *120:8 0.000263595
37 *1561:RESET_B *120:30 3.67779e-05
38 *1566:RESET_B *1441:B 0.000625277
39 *1567:RESET_B *1441:B 0.000222547
40 *1572:D *1441:B 1.67052e-05
41 *1572:RESET_B *120:30 0.000121038
42 *1573:RESET_B *1441:B 1.49225e-05
43 *1587:RESET_B *1440:B 8.79086e-05
44 *26:8 *120:30 0.000362386
45 *42:12 *120:30 7.06865e-05
46 *57:20 *1439:C 0.000505646
47 *57:20 *120:30 0.000146574
48 *66:12 *120:30 0.000266028
*RES
1 *1438:X *120:8 6.12 
2 *120:8 *120:30 31.7425 
3 *120:30 *1441:B 34.8425 
4 *120:30 *1439:C 6.7225 
5 *120:8 *1440:B 27.675 
*END

*D_NET *121 0.00554176
*CONN
*I *1442:B I *D sky130_fd_sc_hd__and3_1
*I *1440:X O *D sky130_fd_sc_hd__or2_1
*CAP
1 *1442:B 0.00175335
2 *1440:X 0.00175335
3 *1442:B *1425:B 0.000327755
4 *1442:B *1440:A 0.000845253
5 *1442:B *1445:A1 7.4027e-05
6 *1442:B *212:28 0
7 *88:12 *1442:B 0.00078803
*RES
1 *1440:X *1442:B 30.255 
*END

*D_NET *122 0.0131352
*CONN
*I *1442:C I *D sky130_fd_sc_hd__and3_1
*I *1445:A2 I *D sky130_fd_sc_hd__a211oi_1
*I *1441:Y O *D sky130_fd_sc_hd__nand2_1
*CAP
1 *1442:C 0.000158167
2 *1445:A2 0
3 *1441:Y 0.000237729
4 *122:32 0.000185449
5 *122:30 0.00198968
6 *122:8 0.00220013
7 *1442:C *1445:A1 0.000181315
8 *1442:C *188:113 0.000192094
9 *1442:C *225:75 3.4724e-05
10 *122:8 *1441:A 0.000271074
11 *122:8 *170:45 0.000391771
12 *122:8 *193:28 0.000966089
13 *122:30 *1497:D 0.0018136
14 *122:30 *1505:A1 0.000598766
15 *122:30 *134:40 3.77455e-05
16 *122:30 *155:24 0.000794441
17 *122:30 *221:84 1.21092e-05
18 *122:30 *222:36 0.000259227
19 *122:30 *227:26 0.000126764
20 *122:32 *188:113 1.56615e-05
21 *122:32 *212:28 2.53191e-06
22 *1417:A2 *122:30 0.000175733
23 *1424:A *122:30 0.000525565
24 *1445:B1 *122:30 0.000100494
25 *1504:A *1442:C 0
26 *1504:A *122:32 0
27 *1566:RESET_B *122:30 1.45731e-05
28 *1573:D *122:30 0.000173045
29 *47:79 *122:30 0.000277952
30 *47:105 *122:30 0.000545529
31 *86:18 *122:30 0.000250229
32 *94:26 *122:30 0.00060307
*RES
1 *1441:Y *122:8 12.675 
2 *122:8 *122:30 49.9108 
3 *122:30 *122:32 0.4875 
4 *122:32 *1445:A2 3.6 
5 *122:32 *1442:C 8.115 
*END

*D_NET *123 0.00419806
*CONN
*I *1443:A I *D sky130_fd_sc_hd__buf_1
*I *1442:X O *D sky130_fd_sc_hd__and3_1
*CAP
1 *1443:A 0.00154734
2 *1442:X 0.00154734
3 *1443:A *1395:A 0.000199967
4 *1443:A *1408:B 8.19967e-05
5 *1443:A *1480:A 6.26426e-05
6 *1443:A *1491:A 0.000184825
7 *1443:A *1498:A1 1.88602e-05
8 *1443:A *1565:CLK 0
9 *1443:A *139:33 7.66966e-05
10 *1443:A *176:47 7.73272e-05
11 *1443:A *179:132 4.48656e-05
12 *1443:A *185:8 0
13 *1443:A *188:113 0.000154981
14 *1443:A *190:69 2.32724e-05
15 *1443:A *216:18 0
16 *1443:A *223:35 7.86411e-05
17 *1443:A *225:75 9.93127e-05
18 *102:12 *1443:A 0
*RES
1 *1442:X *1443:A 32.055 
*END

*D_NET *124 0.0038842
*CONN
*I *1445:A1 I *D sky130_fd_sc_hd__a211oi_1
*I *1444:Y O *D sky130_fd_sc_hd__inv_2
*CAP
1 *1445:A1 0.00078258
2 *1444:Y 0.00078258
3 *1445:A1 *1444:A 8.23457e-05
4 *1445:A1 *179:100 0.000194291
5 *1445:A1 *179:132 0.00010962
6 *1445:A1 *188:113 6.98693e-05
7 *1445:A1 *212:28 0
8 *1442:B *1445:A1 7.4027e-05
9 *1442:C *1445:A1 0.000181315
10 *1445:C1 *1445:A1 0.000121547
11 *1466:A *1445:A1 0.000260879
12 *1504:A *1445:A1 0.000304558
13 *1566:RESET_B *1445:A1 4.66108e-05
14 *1580:RESET_B *1445:A1 0.000187261
15 *47:105 *1445:A1 0.000495839
16 *115:91 *1445:A1 9.54399e-05
17 *115:100 *1445:A1 9.54399e-05
*RES
1 *1444:Y *1445:A1 27.09 
*END

*D_NET *125 0.00946464
*CONN
*I *1448:A I *D sky130_fd_sc_hd__and3_1
*I *1446:X O *D sky130_fd_sc_hd__or2_1
*CAP
1 *1448:A 0.00120958
2 *1446:X 0.00100651
3 *125:12 0.00221609
4 *1448:A *1405:A 1.21256e-05
5 *1448:A *185:20 9.24881e-05
6 *1448:A *185:35 0.000262706
7 *1448:A *187:22 0.00011272
8 *1448:A *191:84 0.000118714
9 *125:12 *1451:B 5.06989e-05
10 *125:12 *1464:A1 3.01244e-05
11 *125:12 *182:14 1.88656e-05
12 *125:12 *209:70 0.000519073
13 *125:12 *209:85 0.000126751
14 *125:12 *225:16 0.000132842
15 *125:12 *225:30 0.000263475
16 *125:12 *225:75 0.000587106
17 *1399:B *1448:A 0.00077559
18 *1445:B1 *125:12 0.000337291
19 *1446:B *125:12 0.000191335
20 *1448:B *1448:A 0.000139949
21 *47:56 *125:12 0.000123251
22 *47:64 *125:12 0.000165847
23 *65:20 *1448:A 0.000443265
24 *97:22 *125:12 8.05167e-05
25 *119:10 *125:12 0.00044773
*RES
1 *1446:X *125:12 30.44 
2 *125:12 *1448:A 27.44 
*END

*D_NET *126 0.00672709
*CONN
*I *1448:C I *D sky130_fd_sc_hd__and3_1
*I *1447:Y O *D sky130_fd_sc_hd__nand2_1
*CAP
1 *1448:C 0.00152215
2 *1447:Y 0.00152215
3 *1448:C *1463:A 0.000334283
4 *1448:C *1525:A 0.000196048
5 *1448:C *155:24 0.000407333
6 *1448:C *156:25 0.000349653
7 *1448:C *179:6 8.23457e-05
8 *1448:C *179:75 0.000429984
9 *1448:C *224:12 0.000321269
10 *1448:C *224:18 1.01945e-05
11 *1577:RESET_B *1448:C 0.000228231
12 *1587:D *1448:C 5.16603e-05
13 *23:18 *1448:C 0.000519449
14 *86:18 *1448:C 0.000752336
*RES
1 *1447:Y *1448:C 36.45 
*END

*D_NET *127 0.0132568
*CONN
*I *1449:A I *D sky130_fd_sc_hd__clkbuf_1
*I *1448:X O *D sky130_fd_sc_hd__and3_1
*CAP
1 *1449:A 0.00502219
2 *1448:X 0.00502219
3 *1449:A *1450:B1 0.000109379
4 *1449:A *1451:B 9.24833e-05
5 *1449:A *1452:B 0
6 *1449:A *1471:C 0
7 *1449:A *135:20 0
8 *1449:A *146:12 0.000177213
9 *1449:A *147:99 0.000535935
10 *1449:A *165:16 9.45113e-05
11 *1449:A *175:18 7.04513e-05
12 *1449:A *188:76 4.67356e-05
13 *1449:A *205:61 5.27678e-05
14 *1449:A *207:20 0.000104095
15 *1449:A *208:75 7.66738e-05
16 *1449:A *223:35 1.32808e-05
17 *1427:A *1449:A 4.03791e-05
18 *1441:B *1449:A 0.000503711
19 *1581:D *1449:A 0.00094745
20 *1588:D *1449:A 0
21 *94:26 *1449:A 1.18547e-05
22 *95:32 *1449:A 5.37266e-05
23 *95:82 *1449:A 0.000140314
24 *97:44 *1449:A 0.000141471
*RES
1 *1448:X *1449:A 26.9886 
*END

*D_NET *128 0.0198767
*CONN
*I *1452:B I *D sky130_fd_sc_hd__nor3_1
*I *1450:Y O *D sky130_fd_sc_hd__a21oi_2
*CAP
1 *1452:B 0.00590452
2 *1450:Y 0.00590452
3 *1452:B *1452:C 1.92979e-05
4 *1452:B *1463:A 0.00355963
5 *1452:B *1473:A 1.92979e-05
6 *1452:B *1476:A1 0.000311696
7 *1452:B *1502:A 0
8 *1452:B *1505:A1 0
9 *1452:B *1524:A2 4.77719e-05
10 *1452:B *1544:A 0.000194997
11 *1452:B *133:30 0.00150482
12 *1452:B *146:12 1.71207e-05
13 *1452:B *163:12 0.000115235
14 *1452:B *180:143 0.000474821
15 *1452:B *182:18 0
16 *1452:B *208:81 0
17 *1452:B *221:84 0.000451311
18 *1433:B *1452:B 7.64402e-05
19 *1445:C1 *1452:B 0.000282607
20 *1449:A *1452:B 0
21 *1567:D *1452:B 0.000119005
22 *1571:RESET_B *1452:B 0.000456268
23 *1576:D *1452:B 0.000119945
24 *43:26 *1452:B 0
25 *93:18 *1452:B 0
26 *100:16 *1452:B 0.000134122
27 *103:33 *1452:B 0.000163288
*RES
1 *1450:Y *1452:B 31.7083 
*END

*D_NET *129 0.0357092
*CONN
*I *1457:A2 I *D sky130_fd_sc_hd__a21oi_2
*I *1454:B I *D sky130_fd_sc_hd__nand2_1
*I *1474:D I *D sky130_fd_sc_hd__and4_1
*I *1458:C I *D sky130_fd_sc_hd__and3_2
*I *1453:B I *D sky130_fd_sc_hd__or2_1
*I *1452:C I *D sky130_fd_sc_hd__nor3_1
*I *1451:X O *D sky130_fd_sc_hd__and4_4
*CAP
1 *1457:A2 0.000734065
2 *1454:B 0.0014752
3 *1474:D 0.000142698
4 *1458:C 0.00016735
5 *1453:B 0
6 *1452:C 0.000359927
7 *1451:X 3.953e-05
8 *129:103 0.00404915
9 *129:97 0.00397646
10 *129:66 0.00212884
11 *129:64 0.00197918
12 *129:35 0.00156821
13 *129:8 0.00113884
14 *1452:C *1473:A 0.000217717
15 *1452:C *1595:A 0.000165087
16 *1452:C *190:14 0.000111604
17 *1452:C *205:30 6.54123e-05
18 *1454:B *1450:B1 0
19 *1454:B *1476:B1 0.000377121
20 *1454:B *1485:A1 0.000399336
21 *1454:B *1516:A_N 0.000334275
22 *1454:B *1516:B 1.33285e-05
23 *1454:B *1517:C1 4.66474e-05
24 *1454:B *146:12 0
25 *1454:B *187:22 0.00022707
26 *1454:B *191:72 0.00168806
27 *1454:B *191:84 0.000215065
28 *1454:B *207:20 0
29 *1454:B *207:122 0
30 *1457:A2 *1457:A1 0.00037308
31 *1457:A2 *1457:B1 0.000525556
32 *1457:A2 *1540:A 0
33 *1457:A2 *1541:A 0.000116853
34 *1457:A2 *199:36 2.51225e-05
35 *1458:C *1397:A 6.31625e-05
36 *1458:C *1458:A 0.000121019
37 *1474:D *1547:A 2.3091e-05
38 *1474:D *191:43 1.1392e-05
39 *1474:D *191:72 3.62197e-05
40 *1474:D *213:6 4.89295e-05
41 *1474:D *213:35 3.6355e-05
42 *129:35 *1451:A 0.000132178
43 *129:35 *1453:A 7.79847e-05
44 *129:35 *201:38 0.000632936
45 *129:64 *200:61 2.76356e-05
46 *129:64 *200:90 0.00104199
47 *129:64 *202:20 9.08126e-05
48 *129:64 *202:49 0.000144469
49 *129:64 *221:12 0.00051027
50 *129:66 *1495:A 0
51 *129:66 *189:28 1.94684e-05
52 *129:66 *200:90 0.000644813
53 *129:66 *202:49 0.000905442
54 *129:66 *202:66 2.85623e-05
55 *129:66 *221:84 0.000672063
56 *129:97 *1457:A1 0
57 *129:97 *1457:B1 0.000184496
58 *129:97 *1505:B1 1.18961e-06
59 *129:97 *1523:A 1.35875e-05
60 *129:97 *1540:A 6.19533e-05
61 *129:97 *202:66 0.000414467
62 *129:103 *1461:A 9.2741e-05
63 *129:103 *1575:CLK 0.00015148
64 *129:103 *191:43 0.000985325
65 *129:103 *206:10 1.10808e-05
66 *129:103 *213:35 0.000307429
67 *1411:D *129:64 0.000150871
68 *1414:B1 *1454:B 0.0018632
69 *1417:A2 *129:35 0.000127869
70 *1431:A *1452:C 5.89787e-05
71 *1438:C *129:35 5.84759e-05
72 *1451:C *1452:C 1.37804e-05
73 *1451:C *129:8 8.49205e-05
74 *1451:C *129:35 0.000144869
75 *1451:D *1452:C 8.7152e-06
76 *1451:D *129:35 1.96469e-05
77 *1452:B *1452:C 1.92979e-05
78 *1505:C1 *129:97 8.43317e-05
79 *1513:A2 *129:35 0.000303575
80 *1563:D *129:35 0
81 *1564:RESET_B *129:64 0
82 *1568:D *129:8 0.000120655
83 *1575:D *129:97 6.41532e-05
84 *1575:D *129:103 9.20791e-05
85 *1575:RESET_B *1457:A2 0
86 *1575:RESET_B *129:97 9.34954e-05
87 *1579:RESET_B *129:64 0
88 *1581:RESET_B *1474:D 0
89 *1583:RESET_B *1452:C 0.000138926
90 *23:18 *1454:B 0.000966726
91 *34:24 *1454:B 3.44464e-05
92 *48:18 *1452:C 0.000278897
93 *56:26 *1457:A2 0
94 *62:8 *1457:A2 0.000196836
95 *66:12 *1452:C 5.29521e-05
96 *77:14 *129:64 0.00046962
97 *92:16 *1454:B 0
98 *95:32 *129:35 2.49909e-05
99 *99:12 *129:66 0
100 *108:20 *129:64 8.35106e-05
*RES
1 *1451:X *129:8 4.74 
2 *129:8 *1452:C 13.95 
3 *129:8 *129:35 17.945 
4 *129:35 *1453:B 1.6 
5 *129:35 *129:64 32.02 
6 *129:64 *129:66 26.625 
7 *129:66 *1458:C 5.775 
8 *129:66 *129:97 20.49 
9 *129:97 *129:103 36.45 
10 *129:103 *1474:D 8.63 
11 *129:103 *1454:B 49.01 
12 *129:97 *1457:A2 24.51 
*END

*D_NET *130 0.0250766
*CONN
*I *1455:B I *D sky130_fd_sc_hd__and3_1
*I *229:DIODE I *D sky130_fd_sc_hd__diode_2
*I *1453:X O *D sky130_fd_sc_hd__or2_1
*CAP
1 *1455:B 0
2 *229:DIODE 0.000166354
3 *1453:X 0.00719701
4 *130:38 0.00736336
5 *130:38 *1416:C1 0.000374125
6 *130:38 *1453:A 4.77757e-05
7 *130:38 *1462:C 0.000124337
8 *130:38 *1482:B 0.000282713
9 *130:38 *1491:A 0.00301955
10 *130:38 *1502:A 0
11 *130:38 *1505:A1 0.00156385
12 *130:38 *1505:B2 0.000160036
13 *130:38 *1508:B 4.08276e-05
14 *130:38 *132:8 0.000115347
15 *130:38 *165:16 0
16 *130:38 *179:132 0.000119831
17 *130:38 *206:26 0.00042354
18 *130:38 *211:87 1.02564e-05
19 *1400:A *130:38 0.000424169
20 *1402:A *130:38 3.98126e-05
21 *1416:A2 *130:38 0.000742487
22 *1455:A *229:DIODE 2.36386e-05
23 *1455:A *130:38 1.1392e-05
24 *1563:D *130:38 0.000740001
25 *1573:RESET_B *130:38 0
26 *1574:D *130:38 5.89925e-05
27 *1579:RESET_B *130:38 5.89925e-05
28 *1581:D *130:38 0.000258365
29 *1590:D *130:38 0.000191142
30 *34:24 *130:38 0
31 *43:26 *130:38 0.000841624
32 *47:39 *130:38 0.000109323
33 *47:56 *130:38 1.00941e-05
34 *76:28 *130:38 1.7635e-05
35 *98:37 *130:38 0.000540014
*RES
1 *1453:X *130:38 41.2269 
2 *130:38 *229:DIODE 3.43 
3 *130:38 *1455:B 1.6 
*END

*D_NET *131 0.00948814
*CONN
*I *1455:C I *D sky130_fd_sc_hd__and3_1
*I *1454:Y O *D sky130_fd_sc_hd__nand2_1
*CAP
1 *1455:C 0.000377243
2 *1454:Y 0.00145195
3 *131:16 0.00182919
4 *1455:C *1479:C 0.000256292
5 *131:16 *1508:C 0.00168074
6 *131:16 *170:14 0.00106092
7 *131:16 *187:22 1.56428e-05
8 *131:16 *191:84 7.88068e-05
9 *131:16 *191:86 7.8494e-06
10 *228:DIODE *131:16 0.000115233
11 *1423:B *131:16 3.62726e-05
12 *1423:C *131:16 1.09124e-05
13 *1455:A *1455:C 0.000223477
14 *1570:RESET_B *131:16 0.000652537
15 *79:12 *131:16 0.000720456
16 *108:30 *131:16 0.000200712
17 *115:127 *1455:C 4.51413e-05
18 *116:28 *131:16 0.000724776
*RES
1 *1454:Y *131:16 45.74 
2 *131:16 *1455:C 6.7825 
*END

*D_NET *132 0.0249277
*CONN
*I *1456:A I *D sky130_fd_sc_hd__buf_1
*I *1455:X O *D sky130_fd_sc_hd__and3_1
*CAP
1 *1456:A 0.000148035
2 *1455:X 2.21004e-05
3 *132:16 0.00238324
4 *132:14 0.00293526
5 *132:8 0.00284289
6 *132:6 0.00216493
7 *132:8 *1395:A 0.000230649
8 *132:8 *1479:C 0.00035491
9 *132:8 *1480:A 0.00168717
10 *132:8 *1491:A 0.00083356
11 *132:8 *179:132 0.000646231
12 *132:16 *1603:A 0
13 *132:16 *195:18 0.00406774
14 *1455:A *132:8 8.61608e-05
15 *30:8 *132:8 0.000373022
16 *50:12 *132:8 0.000380139
17 *61:10 *132:16 0.00456842
18 *62:10 *132:16 0.00066115
19 *86:16 *132:8 0.000230656
20 *115:127 *132:8 0.000196069
21 *130:38 *132:8 0.000115347
*RES
1 *1455:X *132:6 1.96 
2 *132:6 *132:8 52.7175 
3 *132:8 *132:14 10.9175 
4 *132:14 *132:16 75.33 
5 *132:16 *1456:A 5.775 
*END

*D_NET *133 0.024081
*CONN
*I *1459:B I *D sky130_fd_sc_hd__nor3_1
*I *1457:Y O *D sky130_fd_sc_hd__a21oi_2
*CAP
1 *1459:B 8.27679e-05
2 *1457:Y 0.00723472
3 *133:30 0.00731749
4 *1459:B *1459:C 0.000122189
5 *133:30 *1401:A1 2.15594e-05
6 *133:30 *1467:A 0.000111044
7 *133:30 *1497:B 0.000278437
8 *133:30 *1505:A1 0
9 *133:30 *1534:A 0.000168785
10 *133:30 *1569:CLK 9.15884e-05
11 *133:30 *142:28 0.000169248
12 *133:30 *168:8 0.000145937
13 *133:30 *168:14 0.000300058
14 *133:30 *175:18 0
15 *133:30 *179:100 0.000152293
16 *133:30 *183:64 7.70218e-05
17 *133:30 *187:50 0.00024207
18 *133:30 *188:20 0
19 *133:30 *188:160 9.16271e-05
20 *133:30 *213:35 0
21 *133:30 *213:61 0.000247932
22 *133:30 *222:30 0.000722298
23 *1394:B *133:30 0
24 *1423:A *133:30 0.000815879
25 *1452:B *133:30 0.00150482
26 *1504:A *133:30 0.000107433
27 *1565:D *133:30 0.000147088
28 *1565:RESET_B *133:30 0.000158497
29 *1571:D *133:30 0.00110626
30 *1576:D *133:30 0.000119325
31 *1593:A *133:30 0.000722149
32 *23:18 *133:30 0.000442168
33 *47:105 *133:30 0.000390727
34 *47:174 *1459:B 1.52352e-05
35 *56:14 *133:30 0.000722073
36 *103:33 *133:30 0.000252275
*RES
1 *1457:Y *133:30 48.9974 
2 *133:30 *1459:B 3.085 
*END

*D_NET *134 0.022491
*CONN
*I *1461:B I *D sky130_fd_sc_hd__nand2_1
*I *1465:C I *D sky130_fd_sc_hd__nand3_1
*I *1460:B I *D sky130_fd_sc_hd__or2_1
*I *1464:A2 I *D sky130_fd_sc_hd__a21o_1
*I *1459:C I *D sky130_fd_sc_hd__nor3_1
*I *1458:X O *D sky130_fd_sc_hd__and3_2
*CAP
1 *1461:B 0.000349318
2 *1465:C 0
3 *1460:B 0.000120379
4 *1464:A2 0
5 *1459:C 0.00106258
6 *1458:X 0.000959822
7 *134:40 0.00194115
8 *134:26 0.00208007
9 *134:14 0.00165535
10 *134:8 0.00188337
11 *1459:C *1407:B 8.34281e-06
12 *1459:C *1407:C 1.91597e-05
13 *1459:C *1407:D 8.35068e-05
14 *1459:C *1476:A1 0
15 *1459:C *163:12 0.000552854
16 *1459:C *180:14 4.66108e-05
17 *1459:C *180:29 8.41384e-05
18 *1459:C *227:53 0.000416902
19 *1459:C *227:59 0.000176647
20 *1460:B *155:24 4.7003e-05
21 *1460:B *181:24 0.000169717
22 *1461:B *1461:A 0.000825408
23 *1461:B *1474:A 0.000110814
24 *1461:B *1580:CLK 3.3021e-05
25 *1461:B *1584:CLK 7.6867e-05
26 *1461:B *179:140 0.000292508
27 *1461:B *180:67 0
28 *1461:B *191:43 4.82863e-05
29 *134:8 *1397:A 0.000444106
30 *134:8 *1425:C 0.000705944
31 *134:8 *1440:A 7.67238e-05
32 *134:14 *1461:A 0.00149632
33 *134:14 *1462:C 0.000294845
34 *134:14 *143:14 0.000577692
35 *134:14 *179:140 0.000241613
36 *134:14 *180:67 0
37 *134:14 *203:37 0.000228752
38 *134:26 *1465:B 8.4841e-05
39 *134:26 *1483:A 0.000627089
40 *134:26 *141:10 0
41 *134:26 *180:56 2.34331e-05
42 *134:26 *185:45 0.000108322
43 *134:26 *203:37 6.24832e-05
44 *134:26 *203:45 0.000302514
45 *134:40 *1464:B1 8.23457e-05
46 *134:40 *1484:A3 8.40213e-05
47 *134:40 *185:45 0.000661236
48 *134:40 *227:53 0.000284976
49 *1424:A *1460:B 6.58423e-05
50 *1459:B *1459:C 0.000122189
51 *1498:C1 *1459:C 3.50152e-06
52 *1573:D *1459:C 0.000343852
53 *1573:D *134:40 0
54 *1593:A *134:40 1.88656e-05
55 *47:79 *134:40 7.94929e-05
56 *47:174 *1459:C 0.000214458
57 *65:20 *134:26 0.000114492
58 *65:20 *134:40 0.000332809
59 *66:12 *134:14 0.000301194
60 *67:12 *1459:C 0.000209198
61 *88:24 *134:14 0.00022707
62 *103:33 *134:40 0.000989214
63 *122:30 *134:40 3.77455e-05
*RES
1 *1458:X *134:8 16.125 
2 *134:8 *134:14 23.405 
3 *134:14 *134:26 20.52 
4 *134:26 *134:40 25.1 
5 *134:40 *1459:C 29.765 
6 *134:40 *1464:A2 1.6 
7 *134:26 *1460:B 6.465 
8 *134:14 *1465:C 1.6 
9 *134:8 *1461:B 13.59 
*END

*D_NET *135 0.0125019
*CONN
*I *1462:B I *D sky130_fd_sc_hd__and3_1
*I *1460:X O *D sky130_fd_sc_hd__or2_1
*CAP
1 *1462:B 0.00127689
2 *1460:X 0.00152653
3 *135:20 0.00280342
4 *1462:B *1462:C 3.29217e-05
5 *1462:B *1463:A 5.93601e-05
6 *1462:B *1502:A 0
7 *1462:B *156:10 0.000401089
8 *1462:B *205:30 0.0001861
9 *1462:B *219:23 7.11365e-05
10 *135:20 *1464:A1 0.00159904
11 *135:20 *1471:C 0.000163049
12 *135:20 *1502:A 0.000387836
13 *135:20 *165:16 1.45628e-05
14 *135:20 *181:24 4.66108e-05
15 *135:20 *205:30 2.12353e-05
16 *135:20 *223:35 2.96816e-05
17 *135:20 *224:12 0.00197759
18 *1419:A *135:20 0.000201173
19 *1441:B *1462:B 0
20 *1449:A *135:20 0
21 *1567:RESET_B *1462:B 0
22 *1573:RESET_B *1462:B 0
23 *1586:D *1462:B 0
24 *1588:D *135:20 0.000280669
25 *39:14 *1462:B 0.000613579
26 *43:26 *1462:B 0.000104231
27 *66:28 *1462:B 0
28 *94:26 *135:20 0.000614854
29 *95:32 *135:20 9.02927e-05
*RES
1 *1460:X *135:20 33.3422 
2 *135:20 *1462:B 27.6675 
*END

*D_NET *136 0.0190413
*CONN
*I *1462:C I *D sky130_fd_sc_hd__and3_1
*I *1461:Y O *D sky130_fd_sc_hd__nand2_1
*CAP
1 *1462:C 0.00665064
2 *1461:Y 0.00665064
3 *1462:C *1473:A 0.000117835
4 *1462:C *1495:A 3.96676e-05
5 *1462:C *1584:CLK 6.03517e-05
6 *1462:C *142:28 0.000179663
7 *1462:C *143:14 0.000354599
8 *1462:C *156:10 0.00089852
9 *1462:C *180:56 0.000288126
10 *1462:C *180:67 6.2001e-05
11 *1462:C *205:61 0.000162211
12 *1462:C *208:32 0.000204926
13 *1462:C *211:108 1.1014e-05
14 *1416:A2 *1462:C 0.00182103
15 *1462:B *1462:C 3.29217e-05
16 *1505:C1 *1462:C 7.89282e-05
17 *1586:D *1462:C 0.000242844
18 *43:26 *1462:C 0.000310247
19 *66:12 *1462:C 0.000455897
20 *130:38 *1462:C 0.000124337
21 *134:14 *1462:C 0.000294845
*RES
1 *1461:Y *1462:C 27.4776 
*END

*D_NET *137 0.0191075
*CONN
*I *1463:A I *D sky130_fd_sc_hd__buf_1
*I *1462:X O *D sky130_fd_sc_hd__and3_1
*CAP
1 *1463:A 0.00555177
2 *1462:X 0.00555177
3 *1463:A *1429:B1 0.000109387
4 *1463:A *1467:A 0.000190181
5 *1463:A *1476:A1 0.000124806
6 *1463:A *138:10 0.000212659
7 *1463:A *147:28 0.000336558
8 *1463:A *156:25 0.000334283
9 *1463:A *175:18 0.000435728
10 *1463:A *175:43 0.000232852
11 *1463:A *180:14 0.000116752
12 *1463:A *180:29 0.000180093
13 *1463:A *191:84 0
14 *1463:A *208:81 0.000220657
15 *1463:A *219:34 0.000175493
16 *1463:A *227:53 0.000190181
17 *1448:C *1463:A 0.000334283
18 *1452:B *1463:A 0.00355963
19 *1462:B *1463:A 5.93601e-05
20 *1586:D *1463:A 1.95176e-05
21 *1586:RESET_B *1463:A 0
22 *89:18 *1463:A 0.000749371
23 *92:16 *1463:A 0.000185099
24 *93:51 *1463:A 0.00012373
25 *94:26 *1463:A 0.000113298
*RES
1 *1462:X *1463:A 28.3729 
*END

*D_NET *138 0.00990647
*CONN
*I *1466:B I *D sky130_fd_sc_hd__and3_1
*I *1464:X O *D sky130_fd_sc_hd__a21o_1
*CAP
1 *1466:B 0.000189777
2 *1464:X 0.00130483
3 *138:10 0.0014946
4 *138:10 *1467:A 0.000644987
5 *138:10 *1484:A2 0.000162083
6 *138:10 *1484:A3 3.9232e-05
7 *138:10 *179:100 3.59904e-05
8 *138:10 *219:49 0.00334542
9 *138:10 *222:10 7.1009e-05
10 *138:10 *222:30 1.96308e-05
11 *138:10 *227:53 0.00207073
12 *1463:A *138:10 0.000212659
13 *34:24 *1466:B 0.000267553
14 *89:18 *138:10 4.79685e-05
*RES
1 *1464:X *138:10 48.03 
2 *138:10 *1466:B 6.12 
*END

*D_NET *139 0.011869
*CONN
*I *1466:C I *D sky130_fd_sc_hd__and3_1
*I *1469:B I *D sky130_fd_sc_hd__nand2_1
*I *1470:B I *D sky130_fd_sc_hd__or2_1
*I *1465:Y O *D sky130_fd_sc_hd__nand3_1
*CAP
1 *1466:C 9.50322e-05
2 *1469:B 0.00161416
3 *1470:B 0
4 *1465:Y 0.000772232
5 *139:33 0.00224107
6 *139:14 0.00130411
7 *1466:C *1408:B 1.70906e-05
8 *1469:B *1469:A 0.000423512
9 *1469:B *1479:C 8.91919e-05
10 *1469:B *1481:A 0.000215534
11 *1469:B *1544:A 4.66108e-05
12 *1469:B *179:75 9.50342e-06
13 *1469:B *179:100 0.000116309
14 *139:14 *1470:A 0
15 *139:14 *1523:A 4.21518e-05
16 *139:14 *141:10 0
17 *139:14 *143:14 4.7937e-05
18 *139:14 *180:56 0.00030001
19 *139:14 *180:67 0.00101384
20 *139:33 *1425:B 8.70195e-05
21 *139:33 *1470:A 2.68526e-05
22 *139:33 *1522:B 0.000166249
23 *139:33 *1523:A 0.000292196
24 *139:33 *143:14 3.74447e-05
25 *139:33 *176:47 0.000120655
26 *139:33 *188:113 0.000108031
27 *139:33 *225:75 0.000583306
28 *1443:A *139:33 7.66966e-05
29 *1565:RESET_B *1466:C 0.000277224
30 *1565:RESET_B *1469:B 0.000184182
31 *1566:RESET_B *1466:C 0.000284453
32 *1566:RESET_B *1469:B 0.000180675
33 *51:14 *139:14 8.52845e-05
34 *65:20 *1469:B 0.000860062
35 *88:24 *139:14 8.64421e-05
36 *115:106 *139:33 6.39787e-05
*RES
1 *1465:Y *139:14 23.105 
2 *139:14 *1470:B 1.6 
3 *139:14 *139:33 15.755 
4 *139:33 *1469:B 31.41 
5 *139:33 *1466:C 7.185 
*END

*D_NET *140 0.00722459
*CONN
*I *1467:A I *D sky130_fd_sc_hd__clkbuf_1
*I *1466:X O *D sky130_fd_sc_hd__and3_1
*CAP
1 *1467:A 0.00100327
2 *1466:X 0.00100327
3 *1467:A *1408:B 0.000119246
4 *1467:A *168:14 5.55694e-05
5 *1467:A *179:100 0.000417521
6 *1467:A *227:53 0.00151902
7 *1463:A *1467:A 0.000190181
8 *1576:D *1467:A 0.00089261
9 *89:18 *1467:A 0.00126788
10 *133:30 *1467:A 0.000111044
11 *138:10 *1467:A 0.000644987
*RES
1 *1466:X *1467:A 40.575 
*END

*D_NET *141 0.0138566
*CONN
*I *1470:A I *D sky130_fd_sc_hd__or2_1
*I *1469:A I *D sky130_fd_sc_hd__nand2_1
*I *1468:Y O *D sky130_fd_sc_hd__inv_2
*CAP
1 *1470:A 0.000265005
2 *1469:A 0.00250171
3 *1468:Y 0.00128696
4 *141:10 0.00405368
5 *1469:A *1479:C 0.000159845
6 *1469:A *1481:A 0.00085246
7 *1469:A *1504:B 9.14049e-05
8 *1469:A *151:18 0.000824825
9 *1470:A *1523:A 1.49267e-05
10 *1470:A *143:14 4.87428e-05
11 *1470:A *190:69 0
12 *141:10 *1410:B 0
13 *141:10 *1465:B 0.000443492
14 *141:10 *1471:C 0.000424955
15 *141:10 *1487:A 0.00139726
16 *141:10 *1487:C 0
17 *141:10 *1487:D 0
18 *141:10 *180:56 0
19 *141:10 *190:69 0
20 *141:10 *208:75 0.00010784
21 *141:10 *210:22 0
22 *1441:B *141:10 9.17974e-05
23 *1469:B *1469:A 0.000423512
24 *1576:D *1469:A 0.000558194
25 *65:20 *1469:A 2.39856e-05
26 *76:28 *141:10 8.46717e-05
27 *86:16 *1469:A 9.14049e-05
28 *115:91 *1469:A 8.30967e-05
29 *134:26 *141:10 0
30 *139:14 *1470:A 0
31 *139:14 *141:10 0
32 *139:33 *1470:A 2.68526e-05
*RES
1 *1468:Y *141:10 31.02 
2 *141:10 *1469:A 46.015 
3 *141:10 *1470:A 8.025 
*END

*D_NET *142 0.01947
*CONN
*I *1471:B I *D sky130_fd_sc_hd__and3_1
*I *230:DIODE I *D sky130_fd_sc_hd__diode_2
*I *1469:Y O *D sky130_fd_sc_hd__nand2_1
*CAP
1 *1471:B 0
2 *230:DIODE 0.000108563
3 *1469:Y 0.0058147
4 *142:28 0.00592327
5 *230:DIODE *1472:A 0.000122331
6 *230:DIODE *1473:A 8.40213e-05
7 *142:28 *1451:A 9.3849e-05
8 *142:28 *1471:C 0.000302785
9 *142:28 *1473:A 1.46828e-05
10 *142:28 *1479:B 7.71236e-05
11 *142:28 *1499:B 0.000656481
12 *142:28 *1505:A1 0.00028338
13 *142:28 *147:99 1.35084e-05
14 *142:28 *182:14 2.03757e-05
15 *142:28 *196:37 0.000185166
16 *1402:A *142:28 0
17 *1423:A *142:28 0.000742266
18 *1445:B1 *142:28 4.06524e-06
19 *1451:D *142:28 0.000284969
20 *1462:C *142:28 0.000179663
21 *1471:A *230:DIODE 8.53769e-05
22 *1570:RESET_B *142:28 0.00225439
23 *1586:RESET_B *142:28 5.05097e-05
24 *1588:D *142:28 0.000251245
25 *1593:A *142:28 0.000134413
26 *47:56 *142:28 0.000230154
27 *66:12 *142:28 0.00130096
28 *76:28 *142:28 8.24986e-05
29 *133:30 *142:28 0.000169248
*RES
1 *1469:Y *142:28 39.0541 
2 *142:28 *230:DIODE 4.135 
3 *142:28 *1471:B 1.6 
*END

*D_NET *143 0.014165
*CONN
*I *1471:C I *D sky130_fd_sc_hd__and3_1
*I *1476:A2 I *D sky130_fd_sc_hd__a211oi_2
*I *1470:X O *D sky130_fd_sc_hd__or2_1
*CAP
1 *1471:C 0.00117348
2 *1476:A2 0.000314646
3 *1470:X 0.00102514
4 *143:14 0.00251327
5 *1471:C *1410:B 0
6 *1471:C *1451:A 0.000192125
7 *1471:C *1451:B 3.83194e-05
8 *1471:C *1473:A 0.000120655
9 *1471:C *1490:C 2.97897e-05
10 *1471:C *1539:A 7.5655e-05
11 *1471:C *156:10 0.000237686
12 *1471:C *180:56 4.46495e-05
13 *1471:C *201:36 0.000109198
14 *1471:C *205:30 0.000110471
15 *1471:C *205:61 5.36514e-05
16 *1471:C *208:14 0.00015264
17 *1476:A2 *225:30 0.00029933
18 *143:14 *1523:A 3.0807e-05
19 *143:14 *1597:A 0.000170403
20 *143:14 *156:10 0.00103589
21 *143:14 *180:56 1.10951e-05
22 *143:14 *180:67 0.00045969
23 *1441:B *1471:C 0.000496084
24 *1449:A *1471:C 0
25 *1462:C *143:14 0.000354599
26 *1470:A *143:14 4.87428e-05
27 *1471:A *1471:C 5.49535e-05
28 *1561:RESET_B *1476:A2 0.000575722
29 *1561:RESET_B *143:14 0.000293117
30 *1563:D *1471:C 6.72143e-05
31 *1568:D *1471:C 0.000108271
32 *26:8 *1476:A2 0.000922626
33 *26:8 *143:14 0.000170486
34 *66:12 *143:14 0.00101566
35 *105:112 *1471:C 0.000110165
36 *106:8 *1471:C 0.000194891
37 *134:14 *143:14 0.000577692
38 *135:20 *1471:C 0.000163049
39 *139:14 *143:14 4.7937e-05
40 *139:33 *143:14 3.74447e-05
41 *141:10 *1471:C 0.000424955
42 *142:28 *1471:C 0.000302785
*RES
1 *1470:X *143:14 36.005 
2 *143:14 *1476:A2 12.175 
3 *143:14 *1471:C 41.245 
*END

*D_NET *144 0.00717284
*CONN
*I *1472:A I *D sky130_fd_sc_hd__clkbuf_1
*I *1471:X O *D sky130_fd_sc_hd__and3_1
*CAP
1 *1472:A 0.00135532
2 *1471:X 0.00135532
3 *1472:A *1490:B 0.000350185
4 *1472:A *1491:A 0.000755536
5 *1472:A *189:28 0.000116165
6 *1472:A *202:20 1.61377e-05
7 *1472:A *203:18 0.000278262
8 *1472:A *203:31 0.000193323
9 *1472:A *206:10 0.00031422
10 *1472:A *206:26 9.3062e-06
11 *230:DIODE *1472:A 0.000122331
12 *1566:RESET_B *1472:A 0.000278798
13 *1574:D *1472:A 1.79174e-05
14 *1580:D *1472:A 0.00045382
15 *1587:RESET_B *1472:A 0.000627311
16 *1590:D *1472:A 0
17 *47:33 *1472:A 0.000148135
18 *115:14 *1472:A 0.00078076
*RES
1 *1471:X *1472:A 46.23 
*END

*D_NET *145 0.0119267
*CONN
*I *1476:A1 I *D sky130_fd_sc_hd__a211oi_2
*I *1473:Y O *D sky130_fd_sc_hd__inv_2
*CAP
1 *1476:A1 0.0015137
2 *1473:Y 0.00068901
3 *145:8 0.00220271
4 *1476:A1 *147:28 3.81494e-05
5 *1476:A1 *163:12 0
6 *1476:A1 *227:53 0
7 *1476:A1 *227:59 0
8 *145:8 *1473:A 2.30292e-05
9 *145:8 *1511:B 0.00205589
10 *145:8 *1512:A 0.000827009
11 *1416:B1 *1476:A1 5.47453e-05
12 *1452:B *1476:A1 0.000311696
13 *1459:C *1476:A1 0
14 *1463:A *1476:A1 0.000124806
15 *1561:RESET_B *1476:A1 4.41506e-05
16 *26:8 *1476:A1 8.35068e-05
17 *66:28 *145:8 0.000340773
18 *89:18 *1476:A1 0.00292355
19 *103:33 *1476:A1 0.000694031
*RES
1 *1473:Y *145:8 23.025 
2 *145:8 *1476:A1 41.505 
*END

*D_NET *146 0.00969175
*CONN
*I *1475:A I *D sky130_fd_sc_hd__buf_4
*I *1474:X O *D sky130_fd_sc_hd__and4_1
*CAP
1 *1475:A 0
2 *1474:X 0.000106241
3 *146:12 0.00165889
4 *146:8 0.00176513
5 *146:12 *1450:B1 0.0023534
6 *146:12 *1505:A1 0.000163456
7 *146:12 *147:99 0.000525206
8 *146:12 *147:114 0.000149864
9 *146:12 *147:118 7.5246e-05
10 *146:12 *180:143 0.0013577
11 *146:12 *187:50 2.61707e-05
12 *146:12 *191:72 0
13 *146:12 *207:20 0.000291989
14 *1433:B *146:12 0
15 *1445:C1 *146:12 0.000367849
16 *1449:A *146:12 0.000177213
17 *1452:B *146:12 1.71207e-05
18 *1454:B *146:12 0
19 *1569:D *146:12 0.000494547
20 *1581:RESET_B *146:12 0
21 *34:24 *146:12 0
22 *36:20 *146:8 0.000161722
*RES
1 *1474:X *146:8 5.085 
2 *146:8 *146:12 48.515 
3 *146:12 *1475:A 1.6 
*END

*D_NET *147 0.0447159
*CONN
*I *1478:B I *D sky130_fd_sc_hd__nand2_1
*I *1505:B2 I *D sky130_fd_sc_hd__a221oi_2
*I *1488:A I *D sky130_fd_sc_hd__and2_2
*I *1507:B I *D sky130_fd_sc_hd__and3_2
*I *1476:B1 I *D sky130_fd_sc_hd__a211oi_2
*I *1506:A1 I *D sky130_fd_sc_hd__a21oi_1
*I *1484:A3 I *D sky130_fd_sc_hd__a31o_1
*I *1497:C I *D sky130_fd_sc_hd__and4_1
*I *1477:B I *D sky130_fd_sc_hd__or2_1
*I *1486:A4 I *D sky130_fd_sc_hd__a41o_1
*I *1475:X O *D sky130_fd_sc_hd__buf_4
*CAP
1 *1478:B 1.36534e-05
2 *1505:B2 0.00109139
3 *1488:A 0
4 *1507:B 0.000940309
5 *1476:B1 0.000523516
6 *1506:A1 3.69588e-05
7 *1484:A3 0.000403617
8 *1497:C 0.000103317
9 *1477:B 0.000955427
10 *1486:A4 0.000547684
11 *1475:X 6.46293e-06
12 *147:149 0.00367785
13 *147:118 0.00366929
14 *147:114 0.00023526
15 *147:99 0.00112634
16 *147:34 0.00161566
17 *147:28 0.00105007
18 *147:22 0.00160502
19 *147:16 0.000664648
20 *147:10 0.000790687
21 *1476:B1 *1516:B 0.000267518
22 *1476:B1 *176:47 0.000377121
23 *1477:B *1477:A 0.000958219
24 *1477:B *1510:A 0.000372396
25 *1477:B *1511:C 1.33293e-05
26 *1477:B *217:14 0.000498428
27 *1478:B *1478:A 4.66108e-05
28 *1484:A3 *1464:B1 0.000433681
29 *1484:A3 *1484:A2 0.000181015
30 *1484:A3 *153:8 0.00132147
31 *1484:A3 *209:70 2.14725e-05
32 *1486:A4 *1429:B1 0.000139245
33 *1486:A4 *1486:A1 4.35648e-05
34 *1486:A4 *1486:A2 8.77473e-05
35 *1486:A4 *1486:A3 4.89295e-05
36 *1486:A4 *1486:B1 0.000260524
37 *1486:A4 *180:14 0.000187388
38 *1486:A4 *209:31 3.9442e-05
39 *1486:A4 *219:34 8.76201e-05
40 *1497:C *1497:B 0.000604987
41 *1497:C *1497:D 4.66108e-05
42 *1497:C *163:12 0.000164874
43 *1505:B2 *1421:A 9.13184e-05
44 *1505:B2 *1421:B 0.000175474
45 *1505:B2 *1474:B 1.34503e-05
46 *1505:B2 *1482:B 0.000734272
47 *1505:B2 *1505:A2 0.000270426
48 *1505:B2 *1505:B1 0.000483335
49 *1506:A1 *1416:C1 4.66108e-05
50 *1507:B *1492:B 3.21111e-05
51 *1507:B *181:24 0.000732599
52 *1507:B *187:14 0.000102817
53 *1507:B *212:38 0.000116578
54 *147:16 *188:32 8.15917e-05
55 *147:22 *1484:A2 0.000470158
56 *147:22 *153:8 0.0011808
57 *147:22 *188:32 0.00013521
58 *147:22 *207:30 0.000187843
59 *147:28 *163:12 0
60 *147:28 *219:34 0.000797884
61 *147:28 *219:47 0.000125142
62 *147:28 *219:49 0.000598981
63 *147:34 *1429:B1 0.000214605
64 *147:34 *1497:B 0.00012182
65 *147:34 *219:34 0.000118782
66 *147:99 *187:50 0.000530862
67 *147:118 *180:143 0.000139231
68 *147:149 *1483:B 0.000144264
69 *147:149 *1485:A1 2.56676e-06
70 *147:149 *156:6 2.91667e-05
71 *147:149 *156:25 0.000913799
72 *147:149 *168:14 0.00026102
73 *147:149 *180:143 0.000292174
74 *147:149 *207:122 0.000134055
75 *147:149 *208:94 0.000204752
76 *147:149 *219:49 6.64017e-05
77 *1437:A2 *1486:A4 0.000132501
78 *1449:A *147:99 0.000535935
79 *1454:B *1476:B1 0.000377121
80 *1463:A *147:28 0.000336558
81 *1476:A1 *147:28 3.81494e-05
82 *1476:C1 *1476:B1 8.5931e-05
83 *1561:RESET_B *1476:B1 0.000141615
84 *1569:D *147:10 1.88602e-05
85 *1570:RESET_B *1507:B 0.000120586
86 *1571:RESET_B *147:114 7.21004e-05
87 *1571:RESET_B *147:118 0.00028899
88 *1571:RESET_B *147:149 0.000285069
89 *1576:RESET_B *1478:B 4.66108e-05
90 *1580:D *1505:B2 0.000307482
91 *1581:D *147:16 0
92 *1581:D *147:99 0.000542172
93 *1588:D *1507:B 0.000178719
94 *1588:RESET_B *1507:B 0.000447768
95 *26:8 *1476:B1 4.77757e-05
96 *43:26 *1505:B2 0.00171035
97 *65:20 *147:149 0.000214033
98 *88:24 *147:149 0.000103561
99 *89:18 *147:28 0.000943342
100 *97:8 *147:16 7.53689e-05
101 *97:8 *147:22 0.00013687
102 *98:37 *1505:B2 0.000523953
103 *99:20 *1505:B2 0.000823846
104 *105:52 *147:10 1.92979e-05
105 *115:56 *1497:C 0.000237556
106 *115:56 *147:34 6.71882e-05
107 *130:38 *1505:B2 0.000160036
108 *134:40 *1484:A3 8.40213e-05
109 *138:10 *1484:A3 3.9232e-05
110 *142:28 *147:99 1.35084e-05
111 *146:12 *147:99 0.000525206
112 *146:12 *147:114 0.000149864
113 *146:12 *147:118 7.5246e-05
*RES
1 *1475:X *147:10 4.3325 
2 *147:10 *147:16 1.82683 
3 *147:16 *147:22 14.78 
4 *147:22 *147:28 28.33 
5 *147:28 *147:34 5.795 
6 *147:34 *1486:A4 15.57 
7 *147:34 *1477:B 24.75 
8 *147:28 *1497:C 7.225 
9 *147:22 *1484:A3 14.815 
10 *147:16 *1506:A1 4.05 
11 *147:10 *147:99 9.11663 
12 *147:99 *1476:B1 14.775 
13 *147:99 *147:114 1.89 
14 *147:114 *147:118 3.87 
15 *147:118 *1507:B 23.83 
16 *147:118 *147:149 42.375 
17 *147:149 *1488:A 1.6 
18 *147:149 *1505:B2 45.555 
19 *147:114 *1478:B 4.05 
*END

*D_NET *148 0.0151126
*CONN
*I *1479:B I *D sky130_fd_sc_hd__and3_1
*I *1477:X O *D sky130_fd_sc_hd__or2_1
*CAP
1 *1479:B 0.00128952
2 *1477:X 0.000294665
3 *148:10 0.00239414
4 *148:8 0.00139928
5 *1479:B *1492:A 0.000133329
6 *1479:B *1559:A 0.000196641
7 *148:10 *159:8 0.00384761
8 *1402:A *1479:B 0
9 *1436:A *148:10 0
10 *68:12 *1479:B 0.00101578
11 *79:12 *1479:B 3.1562e-06
12 *81:16 *148:10 0.00285708
13 *84:38 *148:10 0.000639202
14 *116:28 *148:10 0.000901865
15 *117:10 *148:10 6.31891e-05
16 *142:28 *1479:B 7.71236e-05
*RES
1 *1477:X *148:8 6.81 
2 *148:8 *148:10 49.065 
3 *148:10 *1479:B 33.805 
*END

*D_NET *149 0.0110149
*CONN
*I *1481:B I *D sky130_fd_sc_hd__xor2_1
*I *1479:C I *D sky130_fd_sc_hd__and3_1
*I *1485:A2 I *D sky130_fd_sc_hd__o211a_1
*I *1478:Y O *D sky130_fd_sc_hd__nand2_1
*CAP
1 *1481:B 0
2 *1479:C 0.000673991
3 *1485:A2 0.000630957
4 *1478:Y 0.000395281
5 *149:25 0.00121714
6 *149:6 0.00156938
7 *1479:C *1433:A 0.000238405
8 *1479:C *181:16 0
9 *1479:C *181:18 0
10 *1479:C *185:20 0
11 *1479:C *221:98 0.000304809
12 *1485:A2 *1485:A1 0.000356145
13 *149:6 *1485:A1 7.37484e-06
14 *149:25 *1405:A 0.0017903
15 *149:25 *160:10 0.00122326
16 *1423:A *1479:C 0.0001342
17 *1455:C *1479:C 0.000256292
18 *1469:A *1479:C 0.000159845
19 *1469:B *1479:C 8.91919e-05
20 *1485:C1 *1485:A2 1.82271e-05
21 *1576:D *149:6 0.000196078
22 *1576:RESET_B *149:6 4.38197e-05
23 *34:24 *149:25 0.000421105
24 *70:10 *1479:C 7.63125e-05
25 *96:12 *1479:C 0.00052098
26 *96:12 *149:25 0.000228924
27 *115:127 *1479:C 0.000107982
28 *132:8 *1479:C 0.00035491
*RES
1 *1478:Y *149:6 6.19 
2 *149:6 *1485:A2 10.72 
3 *149:6 *149:25 25.015 
4 *149:25 *1479:C 22.745 
5 *149:25 *1481:B 1.6 
*END

*D_NET *150 0.00817682
*CONN
*I *1480:A I *D sky130_fd_sc_hd__clkbuf_1
*I *1479:X O *D sky130_fd_sc_hd__and3_1
*CAP
1 *1480:A 0.00255628
2 *1479:X 0.00255628
3 *1480:A *1408:B 0.000145857
4 *1480:A *223:35 0.00031074
5 *1443:A *1480:A 6.26426e-05
6 *86:16 *1480:A 0.000231819
7 *102:12 *1480:A 0.000626041
8 *132:8 *1480:A 0.00168717
*RES
1 *1479:X *1480:A 44.82 
*END

*D_NET *151 0.0130337
*CONN
*I *1482:B I *D sky130_fd_sc_hd__nor2_1
*I *1481:X O *D sky130_fd_sc_hd__xor2_1
*CAP
1 *1482:B 0.0008132
2 *1481:X 0.00225804
3 *151:18 0.00307124
4 *1482:B *1411:C 5.03583e-05
5 *151:18 *1524:A1 4.82863e-05
6 *151:18 *188:113 0.00040911
7 *1400:A *1482:B 0.00124648
8 *1445:B1 *151:18 1.91597e-05
9 *1445:C1 *151:18 0.000786646
10 *1469:A *151:18 0.000824825
11 *1505:B2 *1482:B 0.000734272
12 *1567:D *151:18 0.000172695
13 *1577:RESET_B *1482:B 0.00036896
14 *42:12 *1482:B 3.96631e-05
15 *43:26 *1482:B 0.000859616
16 *76:28 *1482:B 1.7635e-05
17 *93:18 *151:18 7.4027e-05
18 *97:44 *151:18 7.23602e-05
19 *98:37 *1482:B 0.000884395
20 *130:38 *1482:B 0.000282713
*RES
1 *1481:X *151:18 40.435 
2 *151:18 *1482:B 32.685 
*END

*D_NET *152 0.00533204
*CONN
*I *1485:A1 I *D sky130_fd_sc_hd__o211a_1
*I *1483:Y O *D sky130_fd_sc_hd__nand2_1
*CAP
1 *1485:A1 0.00173486
2 *1483:Y 0.00173486
3 *1485:A1 *1483:A 1.08758e-05
4 *1485:A1 *207:122 0.000268085
5 *1454:B *1485:A1 0.000399336
6 *1485:A2 *1485:A1 0.000356145
7 *1485:C1 *1485:A1 4.82919e-05
8 *1576:RESET_B *1485:A1 0.000733663
9 *88:24 *1485:A1 3.59784e-05
10 *147:149 *1485:A1 2.56676e-06
11 *149:6 *1485:A1 7.37484e-06
*RES
1 *1483:Y *1485:A1 32.055 
*END

*D_NET *153 0.0105706
*CONN
*I *1485:B1 I *D sky130_fd_sc_hd__o211a_1
*I *1484:X O *D sky130_fd_sc_hd__a31o_1
*CAP
1 *1485:B1 0.000407417
2 *1484:X 0.00204774
3 *153:8 0.00245515
4 *1485:B1 *1553:A 5.33085e-05
5 *1485:B1 *181:103 0.00142176
6 *1485:B1 *191:86 0
7 *153:8 *207:30 7.6677e-05
8 *1436:A *153:8 0.000823661
9 *1484:A3 *153:8 0.00132147
10 *1564:D *153:8 8.73389e-06
11 *68:12 *1485:B1 0.000773901
12 *147:22 *153:8 0.0011808
*RES
1 *1484:X *153:8 37.86 
2 *153:8 *1485:B1 20.535 
*END

*D_NET *154 0.0103431
*CONN
*I *1490:B I *D sky130_fd_sc_hd__and3_1
*I *1486:X O *D sky130_fd_sc_hd__a41o_1
*CAP
1 *1490:B 0.00129019
2 *1486:X 0.00124743
3 *154:12 0.00253762
4 *1490:B *1392:A 0.000976374
5 *1490:B *1490:C 0
6 *1490:B *1514:A1 0.000139245
7 *1490:B *1514:A2 1.07797e-05
8 *1490:B *170:45 3.31282e-05
9 *154:12 *1437:A1 0.000923828
10 *154:12 *209:56 0.000279963
11 *1437:A2 *154:12 0.000450237
12 *1462:A *1490:B 0.000183987
13 *1472:A *1490:B 0.000350185
14 *1513:A2 *1490:B 0.00128437
15 *47:33 *1490:B 8.39873e-05
16 *115:14 *1490:B 8.92701e-05
17 *115:20 *1490:B 0.000148991
18 *115:30 *1490:B 0.000193838
19 *119:10 *154:12 0.00011964
*RES
1 *1486:X *154:12 27.885 
2 *154:12 *1490:B 36.855 
*END

*D_NET *155 0.0203708
*CONN
*I *1488:B I *D sky130_fd_sc_hd__and2_2
*I *1504:B I *D sky130_fd_sc_hd__and2_2
*I *1497:D I *D sky130_fd_sc_hd__and4_1
*I *1487:X O *D sky130_fd_sc_hd__and4_1
*CAP
1 *1488:B 0.000735997
2 *1504:B 0.00133262
3 *1497:D 0.00107692
4 *1487:X 0
5 *155:24 0.00208662
6 *155:8 0.00270231
7 *155:4 0.00109599
8 *1488:B *1461:A 0.000135714
9 *1488:B *1487:A 8.49218e-05
10 *1488:B *1487:B 4.65315e-05
11 *1488:B *1600:A 4.1745e-05
12 *1497:D *1497:B 1.91597e-05
13 *1497:D *163:12 0.000690803
14 *1497:D *210:40 0
15 *1504:B *1534:A 4.76263e-05
16 *1504:B *185:8 0.00122283
17 *1504:B *185:16 0.00047113
18 *1504:B *188:113 9.54399e-05
19 *1504:B *199:28 2.49909e-05
20 *1504:B *212:28 7.02432e-05
21 *1504:B *224:18 0.00014015
22 *155:8 *1413:D 7.72859e-05
23 *155:8 *1487:B 5.31612e-05
24 *155:24 *1460:A 5.83121e-06
25 *155:24 *1505:A1 0.000116216
26 *155:24 *181:24 1.48096e-05
27 *155:24 *202:20 0.000120655
28 *155:24 *222:36 0.00104231
29 *155:24 *224:18 0.000304889
30 *1445:B1 *1504:B 0.000519413
31 *1448:C *155:24 0.000407333
32 *1460:B *155:24 4.7003e-05
33 *1469:A *1504:B 9.14049e-05
34 *1497:C *1497:D 4.66108e-05
35 *1504:A *1504:B 0
36 *1565:RESET_B *1504:B 4.92861e-05
37 *1573:D *1497:D 0.000948365
38 *39:14 *1497:D 1.17409e-05
39 *42:12 *1488:B 0.000135714
40 *47:105 *1504:B 0
41 *84:18 *1497:D 0.000266164
42 *86:16 *1504:B 0.000682859
43 *86:18 *1504:B 1.94654e-05
44 *86:18 *155:24 0.000320555
45 *87:18 *1497:D 9.0444e-05
46 *94:26 *1497:D 0.000151394
47 *115:56 *1497:D 0.000118081
48 *122:30 *1497:D 0.0018136
49 *122:30 *155:24 0.000794441
*RES
1 *1487:X *155:4 1.6 
2 *155:4 *155:8 6.245 
3 *155:8 *155:24 35.315 
4 *155:24 *1497:D 39.01 
5 *155:8 *1504:B 39.745 
6 *155:4 *1488:B 14.93 
*END

*D_NET *156 0.0219206
*CONN
*I *1493:B I *D sky130_fd_sc_hd__nand2_1
*I *1492:B I *D sky130_fd_sc_hd__or2_1
*I *1489:A I *D sky130_fd_sc_hd__inv_2
*I *1488:X O *D sky130_fd_sc_hd__and2_2
*CAP
1 *1493:B 0.00010054
2 *1492:B 0.000746489
3 *1489:A 5.44049e-05
4 *1488:X 5.47828e-05
5 *156:25 0.0021047
6 *156:10 0.00169502
7 *156:8 0.00164062
8 *156:6 0.00131245
9 *1489:A *1601:A 0.000308124
10 *1492:B *1492:A 0.0001753
11 *1492:B *181:18 2.3228e-05
12 *1492:B *187:14 0.000117762
13 *1492:B *191:84 7.07047e-06
14 *1492:B *212:38 1.0397e-05
15 *1492:B *216:26 5.20249e-05
16 *1492:B *216:41 8.2745e-05
17 *1493:B *181:18 0.000184996
18 *1493:B *216:26 0.000327343
19 *156:10 *1410:B 0.000168202
20 *156:10 *180:56 0.00112007
21 *156:10 *201:36 0.000112123
22 *156:10 *205:30 0.000343643
23 *156:10 *205:61 0.000663998
24 *156:10 *208:32 0.00186588
25 *156:25 *1507:C 0.000303911
26 *156:25 *1525:A 0.000196048
27 *156:25 *1545:A 0.000196045
28 *156:25 *168:14 0.00159844
29 *156:25 *179:6 4.41506e-05
30 *156:25 *179:75 0.0002386
31 *156:25 *212:63 5.12248e-05
32 *156:25 *216:41 2.49909e-05
33 *1448:C *156:25 0.000349653
34 *1462:B *156:10 0.000401089
35 *1462:C *156:10 0.00089852
36 *1463:A *156:25 0.000334283
37 *1471:C *156:10 0.000237686
38 *1507:B *1492:B 3.21111e-05
39 *1587:D *156:25 2.99553e-05
40 *1587:RESET_B *156:25 8.39272e-05
41 *1588:RESET_B *1492:B 7.69078e-05
42 *39:14 *156:10 0.000631052
43 *43:26 *156:10 0.000103462
44 *66:8 *156:6 8.23457e-05
45 *66:8 *156:25 2.32296e-05
46 *66:12 *156:10 0.000116014
47 *73:16 *1489:A 0.000309799
48 *76:28 *156:10 3.86814e-05
49 *120:30 *156:10 0.000267695
50 *143:14 *156:10 0.00103589
51 *147:149 *156:6 2.91667e-05
52 *147:149 *156:25 0.000913799
*RES
1 *1488:X *156:6 2.74 
2 *156:6 *156:8 2 
3 *156:8 *156:10 52.89 
4 *156:10 *1489:A 6.465 
5 *156:6 *156:25 35.84 
6 *156:25 *1492:B 13.845 
7 *156:25 *1493:B 7.53 
*END

*D_NET *157 0.0061233
*CONN
*I *1490:C I *D sky130_fd_sc_hd__and3_1
*I *1489:Y O *D sky130_fd_sc_hd__inv_2
*CAP
1 *1490:C 0.00168313
2 *1489:Y 0.00168313
3 *1490:C *1392:A 0
4 *1490:C *1416:C1 0.000135201
5 *1490:C *1473:A 0.000218107
6 *1490:C *1514:A1 0
7 *1490:C *1514:A2 5.12942e-05
8 *1490:C *170:45 6.86819e-05
9 *1490:C *171:12 0.000625469
10 *1490:C *193:28 4.11281e-05
11 *1490:C *206:26 8.18997e-05
12 *1420:B *1490:C 9.735e-05
13 *1471:C *1490:C 2.97897e-05
14 *1490:B *1490:C 0
15 *1563:D *1490:C 0.000105704
16 *47:33 *1490:C 0.00046528
17 *47:39 *1490:C 8.23457e-05
18 *48:18 *1490:C 0
19 *73:16 *1490:C 0.000754781
*RES
1 *1489:Y *1490:C 40.755 
*END

*D_NET *158 0.0171154
*CONN
*I *1491:A I *D sky130_fd_sc_hd__buf_1
*I *1490:X O *D sky130_fd_sc_hd__and3_1
*CAP
1 *1491:A 0.00312263
2 *1490:X 0.00312263
3 *1491:A *1395:A 0.000359203
4 *1491:A *1505:A1 1.48965e-05
5 *1491:A *1558:A 0
6 *1491:A *179:132 8.73147e-06
7 *1491:A *202:20 0.000311151
8 *1491:A *206:26 0.000380941
9 *1443:A *1491:A 0.000184825
10 *1472:A *1491:A 0.000755536
11 *1566:RESET_B *1491:A 0.00243891
12 *1580:D *1491:A 0.000154658
13 *1590:D *1491:A 0.000543226
14 *30:8 *1491:A 0.00159332
15 *43:26 *1491:A 0.000271599
16 *130:38 *1491:A 0.00301955
17 *132:8 *1491:A 0.00083356
*RES
1 *1490:X *1491:A 44.4311 
*END

*D_NET *159 0.0100282
*CONN
*I *1494:B I *D sky130_fd_sc_hd__and3_1
*I *1492:X O *D sky130_fd_sc_hd__or2_1
*CAP
1 *1494:B 0.000889676
2 *1492:X 0.00182466
3 *159:8 0.00271434
4 *1494:B *1398:A1_N 0
5 *1494:B *212:75 0
6 *159:8 *1508:B 0
7 *81:16 *159:8 3.3625e-05
8 *89:14 *1494:B 0.000718327
9 *148:10 *159:8 0.00384761
*RES
1 *1492:X *159:8 48.585 
2 *159:8 *1494:B 18.58 
*END

*D_NET *160 0.0122021
*CONN
*I *1498:A2 I *D sky130_fd_sc_hd__a211oi_2
*I *1494:C I *D sky130_fd_sc_hd__and3_1
*I *1493:Y O *D sky130_fd_sc_hd__nand2_1
*CAP
1 *1498:A2 0
2 *1494:C 0.000461847
3 *1493:Y 0.00121673
4 *160:10 0.00167857
5 *1494:C *1511:C 0.000160635
6 *1494:C *207:30 0.000242146
7 *1494:C *212:75 0.0001426
8 *1494:C *214:10 0.00027153
9 *160:10 *1405:A 9.13009e-05
10 *160:10 *1415:B 0.000141299
11 *160:10 *1506:A2 0.00211559
12 *160:10 *212:30 0.000259648
13 *160:10 *212:38 1.08758e-05
14 *160:10 *212:63 0
15 *160:10 *214:10 0.000118977
16 *1582:D *1494:C 0.000655971
17 *1582:D *160:10 0.00196048
18 *1586:RESET_B *1494:C 0.000155582
19 *1586:RESET_B *160:10 0.000387269
20 *34:24 *160:10 0.000283741
21 *84:18 *1494:C 0.000258871
22 *96:12 *160:10 0.000322665
23 *108:30 *160:10 4.24632e-05
24 *149:25 *160:10 0.00122326
*RES
1 *1493:Y *160:10 46.26 
2 *160:10 *1494:C 18.855 
3 *160:10 *1498:A2 3.6 
*END

*D_NET *161 0.0217998
*CONN
*I *1495:A I *D sky130_fd_sc_hd__clkbuf_1
*I *1494:X O *D sky130_fd_sc_hd__and3_1
*CAP
1 *1495:A 0.00825023
2 *1494:X 0.00825023
3 *1495:A *1509:A 0.000159896
4 *1495:A *1509:B 0.000229355
5 *1495:A *1511:C 9.50342e-06
6 *1495:A *1558:A 0.00334076
7 *1495:A *181:32 0.000189286
8 *1495:A *211:87 0
9 *1495:A *212:75 1.44809e-05
10 seg[4] *1495:A 8.6325e-08
11 *1427:A *1495:A 0.000190285
12 *1462:C *1495:A 3.96676e-05
13 *1567:D *1495:A 0
14 *1586:RESET_B *1495:A 0.000958678
15 *72:10 *1495:A 0.000145127
16 *99:12 *1495:A 2.22427e-05
17 *129:66 *1495:A 0
*RES
1 *1494:X *1495:A 26.5454 
*END

*D_NET *162 0.0227792
*CONN
*I *1498:A1 I *D sky130_fd_sc_hd__a211oi_2
*I *1496:Y O *D sky130_fd_sc_hd__inv_2
*CAP
1 *1498:A1 0.00584581
2 *1496:Y 0.00584581
3 *1498:A1 *1405:A 0.000130304
4 *1498:A1 *1454:A 0.000174347
5 *1498:A1 *1503:A 0.000120586
6 *1498:A1 *1517:D1 0.000128214
7 *1498:A1 *183:16 0.000107048
8 *1498:A1 *185:16 0.000154843
9 *1498:A1 *187:22 0.00016751
10 *1498:A1 *188:76 0.000292626
11 *1498:A1 *201:14 0.000116216
12 *1498:A1 *207:30 0.000128848
13 *1498:A1 *215:14 8.41703e-06
14 *1498:A1 *217:29 0.000274342
15 *1414:A2 *1498:A1 0.000168801
16 *1423:A *1498:A1 0
17 *1427:A *1498:A1 0.00120054
18 *1443:A *1498:A1 1.88602e-05
19 *1448:B *1498:A1 0.000187308
20 *1498:C1 *1498:A1 1.79536e-05
21 *1570:RESET_B *1498:A1 0.00255557
22 *1581:D *1498:A1 0.00035043
23 *1582:D *1498:A1 0.000260878
24 *1586:RESET_B *1498:A1 0.000251074
25 *1589:D *1498:A1 1.19928e-05
26 *1591:RESET_B *1498:A1 0.000159355
27 *1593:A *1498:A1 0.00356089
28 *88:34 *1498:A1 0.000114662
29 *97:44 *1498:A1 0.000425997
*RES
1 *1496:Y *1498:A1 27.1195 
*END

*D_NET *163 0.014885
*CONN
*I *1499:B I *D sky130_fd_sc_hd__or2_1
*I *1500:B I *D sky130_fd_sc_hd__nand2_2
*I *1498:B1 I *D sky130_fd_sc_hd__a211oi_2
*I *1497:X O *D sky130_fd_sc_hd__and4_1
*CAP
1 *1499:B 0.00142935
2 *1500:B 7.0254e-05
3 *1498:B1 0.000505692
4 *1497:X 0.000742264
5 *163:16 0.00143087
6 *163:12 0.00302654
7 *1498:B1 *1497:B 0.000116243
8 *1498:B1 *183:64 0
9 *1498:B1 *188:20 1.05476e-05
10 *1498:B1 *215:14 0.000133491
11 *1499:B *1451:A 0.000655179
12 *1499:B *1499:A 7.47625e-05
13 *1499:B *1563:CLK 0.000555848
14 *1499:B *1591:CLK 0.000153969
15 *1499:B *203:18 0.000191343
16 *1499:B *205:61 0.000305038
17 *1500:B *1497:B 0.000102682
18 *1500:B *188:20 2.75092e-05
19 *163:16 *1591:CLK 1.19928e-05
20 *163:16 *183:96 0.000168726
21 *163:16 *183:103 0.000157291
22 *163:16 *188:20 0.000303873
23 *1416:A2 *1499:B 0.000179663
24 *1419:A *1499:B 0.000492784
25 *1451:D *1499:B 0.000871883
26 *1452:B *163:12 0.000115235
27 *1459:C *163:12 0.000552854
28 *1476:A1 *163:12 0
29 *1497:C *163:12 0.000164874
30 *1497:D *163:12 0.000690803
31 *1498:C1 *1498:B1 4.55864e-06
32 *1563:D *1499:B 0.000228855
33 *1571:D *1498:B1 0.000118081
34 *1571:D *163:16 3.31413e-05
35 *1573:D *1499:B 4.66108e-05
36 *1573:D *163:12 3.09164e-05
37 *1581:D *1498:B1 9.05535e-05
38 *1591:D *163:16 3.1562e-06
39 *48:12 *1498:B1 1.13572e-05
40 *94:26 *163:12 0
41 *115:56 *163:12 0.000163204
42 *119:10 *1499:B 0.000256565
43 *142:28 *1499:B 0.000656481
44 *147:28 *163:12 0
*RES
1 *1497:X *163:12 23.765 
2 *163:12 *163:16 12.455 
3 *163:16 *1498:B1 14.86 
4 *163:16 *1500:B 4.98 
5 *163:12 *1499:B 43.305 
*END

*D_NET *164 0.00394598
*CONN
*I *1501:B I *D sky130_fd_sc_hd__and3_1
*I *1499:X O *D sky130_fd_sc_hd__or2_1
*CAP
1 *1501:B 0.000496183
2 *1499:X 0.000496183
3 *1501:B *1521:A 0.000220836
4 *1501:B *1558:A 0.000116752
5 *1501:B *194:22 0.000152155
6 *1501:B *203:18 2.49909e-05
7 *1438:C *1501:B 0.000888358
8 *1568:D *1501:B 0.00106446
9 *115:20 *1501:B 6.79319e-05
10 *115:30 *1501:B 0.000418138
*RES
1 *1499:X *1501:B 26.115 
*END

*D_NET *165 0.0215567
*CONN
*I *1505:A2 I *D sky130_fd_sc_hd__a221oi_2
*I *1501:C I *D sky130_fd_sc_hd__and3_1
*I *1500:Y O *D sky130_fd_sc_hd__nand2_2
*CAP
1 *1505:A2 9.11532e-05
2 *1501:C 0.000302093
3 *1500:Y 0.00140945
4 *165:39 0.00147202
5 *165:35 0.0016145
6 *165:16 0.00194518
7 *1501:C *184:84 2.60713e-05
8 *1505:A2 *1474:B 0.000196304
9 *1505:A2 *1505:B1 3.83194e-05
10 *165:16 *1404:A2 6.60042e-05
11 *165:16 *1451:B 2.51225e-05
12 *165:16 *1499:A 0.000133567
13 *165:16 *187:61 0.000335938
14 *165:35 *184:108 8.35106e-05
15 *165:39 *1421:B 0.000702062
16 *165:39 *1519:A1 0.000105447
17 *165:39 *1530:A 0.000850708
18 *165:39 *1558:A 0.000446012
19 *165:39 *1572:CLK 9.20076e-05
20 *165:39 *181:32 0
21 *165:39 *184:112 9.24127e-05
22 *165:39 *200:100 0.000559931
23 *1404:B1 *165:16 0.00136452
24 *1432:A *165:35 4.14369e-05
25 *1432:A *165:39 0.000187391
26 *1440:B *165:39 0.000110727
27 *1449:A *165:16 9.45113e-05
28 *1501:A *1501:C 0.000607623
29 *1501:A *165:35 0.000677837
30 *1505:B2 *1505:A2 0.000270426
31 *1562:RESET_B *1501:C 0.000486449
32 *1562:RESET_B *165:35 0.000712232
33 *1566:RESET_B *165:16 0.000696764
34 *1573:RESET_B *165:16 0.000144493
35 *1577:D *165:39 0.000302789
36 *1579:D *165:39 0.00304716
37 *91:8 *165:16 4.77719e-05
38 *94:26 *165:16 1.8249e-05
39 *95:32 *165:16 0.00203031
40 *120:30 *165:39 0.000113615
41 *130:38 *165:16 0
42 *135:20 *165:16 1.45628e-05
*RES
1 *1500:Y *165:16 27.54 
2 *165:16 *1501:C 11.3325 
3 *165:16 *165:35 13.1875 
4 *165:35 *165:39 48.77 
5 *165:39 *1505:A2 4.81 
*END

*D_NET *166 0.0179365
*CONN
*I *1502:A I *D sky130_fd_sc_hd__buf_1
*I *1501:X O *D sky130_fd_sc_hd__and3_1
*CAP
1 *1502:A 0.00435418
2 *1501:X 0.00435418
3 *1502:A *1392:A 0.00030527
4 *1502:A *1395:B 0.000143701
5 *1502:A *1464:A1 0.000109292
6 *1502:A *1505:A1 0.000893502
7 *1502:A *1512:A 0.000414041
8 *1502:A *1594:A 4.57523e-06
9 *1502:A *1595:A 2.99778e-05
10 *1502:A *182:18 0.00168726
11 *1502:A *182:48 0.0016159
12 *1502:A *185:8 0.000169048
13 *1502:A *222:36 0.00015346
14 *1502:A *223:35 0
15 *1502:A *224:12 0.000200748
16 *1502:A *224:18 0.000200123
17 *1397:B *1502:A 0.000252487
18 *1441:B *1502:A 0.000226926
19 *1452:B *1502:A 0
20 *1462:B *1502:A 0
21 *1513:A2 *1502:A 9.23578e-05
22 *1566:RESET_B *1502:A 5.59281e-05
23 *1573:RESET_B *1502:A 8.7152e-06
24 *77:14 *1502:A 0.000322363
25 *86:18 *1502:A 0.000167993
26 *87:18 *1502:A 0.00162523
27 *94:26 *1502:A 6.90868e-05
28 *115:30 *1502:A 9.23578e-05
29 *130:38 *1502:A 0
30 *135:20 *1502:A 0.000387836
*RES
1 *1501:X *1502:A 38.2055 
*END

*D_NET *167 0.019011
*CONN
*I *1505:A1 I *D sky130_fd_sc_hd__a221oi_2
*I *1503:Y O *D sky130_fd_sc_hd__inv_2
*CAP
1 *1505:A1 0.00588435
2 *1503:Y 0.00588435
3 *1505:A1 *1540:A 0
4 *1505:A1 *187:50 1.84845e-05
5 *1505:A1 *201:72 0.000332951
6 *1505:A1 *202:66 0
7 *1505:A1 *207:20 0.00016629
8 *1505:A1 *212:28 0.000243014
9 *1505:A1 *222:30 0.000340859
10 *1505:A1 *222:36 0.000116216
11 *1417:A1 *1505:A1 2.59524e-05
12 *1452:B *1505:A1 0
13 *1491:A *1505:A1 1.48965e-05
14 *1502:A *1505:A1 0.000893502
15 *1505:C1 *1505:A1 0
16 *47:105 *1505:A1 0.000477593
17 *86:16 *1505:A1 0.000172522
18 *86:18 *1505:A1 0.000175475
19 *87:18 *1505:A1 0.00139497
20 *93:51 *1505:A1 9.9797e-05
21 *105:6 *1505:A1 3.83194e-05
22 *105:12 *1505:A1 5.83121e-06
23 *122:30 *1505:A1 0.000598766
24 *130:38 *1505:A1 0.00156385
25 *133:30 *1505:A1 0
26 *142:28 *1505:A1 0.00028338
27 *146:12 *1505:A1 0.000163456
28 *155:24 *1505:A1 0.000116216
*RES
1 *1503:Y *1505:A1 29.2843 
*END

*D_NET *168 0.0241358
*CONN
*I *1505:B1 I *D sky130_fd_sc_hd__a221oi_2
*I *1506:A2 I *D sky130_fd_sc_hd__a21oi_1
*I *1507:C I *D sky130_fd_sc_hd__and3_2
*I *1504:X O *D sky130_fd_sc_hd__and2_2
*CAP
1 *1505:B1 0.00199053
2 *1506:A2 0.000713897
3 *1507:C 0.000282649
4 *1504:X 0.000330923
5 *168:14 0.00241034
6 *168:8 0.00373525
7 *1505:B1 *1474:A 0.00173075
8 *1505:B1 *1474:B 7.10593e-06
9 *1505:B1 *195:16 0.000377111
10 *1506:A2 *1416:C1 0.000118081
11 *1506:A2 *169:8 8.30598e-05
12 *1506:A2 *216:41 0.000231321
13 *1507:C *1492:A 5.18008e-05
14 *1507:C *212:63 1.80638e-05
15 *1507:C *216:41 1.19928e-05
16 *168:8 *222:10 0
17 *168:14 *179:75 0.000435504
18 *168:14 *179:100 0.000826777
19 *168:14 *222:10 0
20 *1448:B *168:14 0.000263979
21 *1467:A *168:14 5.55694e-05
22 *1505:A2 *1505:B1 3.83194e-05
23 *1505:B2 *1505:B1 0.000483335
24 *1519:B1 *1505:B1 0.000956511
25 *1565:RESET_B *168:8 0.000309453
26 *1565:RESET_B *168:14 0.000481527
27 *1576:D *168:14 0.000777354
28 *1586:RESET_B *1506:A2 0.000168785
29 *34:24 *1506:A2 0.000246385
30 *96:12 *1506:A2 0.00211725
31 *100:16 *168:14 0.000156016
32 *129:97 *1505:B1 1.18961e-06
33 *133:30 *168:8 0.000145937
34 *133:30 *168:14 0.000300058
35 *147:149 *168:14 0.00026102
36 *156:25 *1507:C 0.000303911
37 *156:25 *168:14 0.00159844
38 *160:10 *1506:A2 0.00211559
*RES
1 *1504:X *168:8 10.335 
2 *168:8 *168:14 38.81 
3 *168:14 *1507:C 6.475 
4 *168:14 *1506:A2 33.905 
5 *168:8 *1505:B1 35.865 
*END

*D_NET *169 0.00887559
*CONN
*I *1508:B I *D sky130_fd_sc_hd__nor3_1
*I *1506:Y O *D sky130_fd_sc_hd__a21oi_1
*CAP
1 *1508:B 0.00234306
2 *1506:Y 0.00118468
3 *169:8 0.00352774
4 *169:8 *216:41 7.49114e-05
5 *1398:A2_N *1508:B 3.6227e-05
6 *1402:A *1508:B 0.00136512
7 *1506:A2 *169:8 8.30598e-05
8 *81:12 *1508:B 0
9 *81:16 *1508:B 0
10 *84:40 *1508:B 0.000219964
11 *130:38 *1508:B 4.08276e-05
12 *159:8 *1508:B 0
*RES
1 *1506:Y *169:8 16.125 
2 *169:8 *1508:B 49.605 
*END

*D_NET *170 0.0293581
*CONN
*I *1508:C I *D sky130_fd_sc_hd__nor3_1
*I *1513:B1 I *D sky130_fd_sc_hd__a21o_1
*I *1509:B I *D sky130_fd_sc_hd__or2_1
*I *1510:B I *D sky130_fd_sc_hd__nand2_1
*I *1507:X O *D sky130_fd_sc_hd__and3_2
*CAP
1 *1508:C 0.0012914
2 *1513:B1 0.000179061
3 *1509:B 0.000562563
4 *1510:B 0.000471502
5 *1507:X 3.69588e-05
6 *170:47 0.000871506
7 *170:45 0.00309811
8 *170:14 0.0045986
9 *170:8 0.00248724
10 *1508:C *187:14 0.000180287
11 *1508:C *212:38 0
12 *1508:C *216:26 0
13 *1509:B *1509:A 0.00105674
14 *1510:B *1398:A1_N 0
15 *1510:B *1398:B2 0.000245886
16 *1510:B *1553:A 0.000143266
17 *1510:B *191:86 0
18 *1513:B1 *1514:C1 0.000684323
19 *170:8 *1492:A 4.66108e-05
20 *170:14 *1398:B2 0.000511103
21 *170:14 *1533:A 0.000159814
22 *170:14 *179:28 0.000444266
23 *170:14 *187:14 0.000133453
24 *170:14 *189:53 0.000892353
25 *170:45 *1392:A 0.000116158
26 *170:45 *1441:A 0.000272235
27 *170:45 *193:28 0.000839566
28 *170:45 *214:10 0.000186646
29 *170:47 *1514:C1 0.000310777
30 *170:47 *188:160 0.000124007
31 *1490:B *170:45 3.31282e-05
32 *1490:C *170:45 6.86819e-05
33 *1495:A *1509:B 0.000229355
34 *1501:A *1509:B 1.08817e-05
35 *1508:A *1508:C 0.000513033
36 *1513:A1 *1513:B1 0.000674819
37 *1513:A1 *170:47 0.00053431
38 *1560:D *1509:B 0
39 *1570:RESET_B *1508:C 0.000224474
40 *1570:RESET_B *1510:B 6.29909e-05
41 *1570:RESET_B *170:14 0.000566035
42 *1582:D *170:45 2.20087e-06
43 *1585:D *1509:B 0
44 *1586:RESET_B *170:14 0.000288569
45 *1588:RESET_B *170:14 0.000381522
46 *29:8 *1510:B 0.000288981
47 *29:8 *170:14 0.000388402
48 *39:14 *1510:B 0.000271308
49 *46:16 *170:45 3.99879e-05
50 *79:12 *170:14 0.0017015
51 *122:8 *170:45 0.000391771
52 *131:16 *1508:C 0.00168074
53 *131:16 *170:14 0.00106092
*RES
1 *1507:X *170:8 4.05 
2 *170:8 *170:14 45.54 
3 *170:14 *1510:B 17.98 
4 *170:14 *170:45 49.77 
5 *170:45 *170:47 4.935 
6 *170:47 *1509:B 18.455 
7 *170:47 *1513:B1 8.98 
8 *170:8 *1508:C 33.015 
*END

*D_NET *171 0.0103529
*CONN
*I *1511:B I *D sky130_fd_sc_hd__and3_1
*I *1509:X O *D sky130_fd_sc_hd__or2_1
*CAP
1 *1511:B 0.000767849
2 *1509:X 0.000731496
3 *171:12 0.00149935
4 *1511:B *1473:A 0.0001249
5 *1511:B *1512:A 0.000708318
6 *171:12 *1473:A 0.000283378
7 *171:12 *1566:CLK 8.44308e-05
8 *1419:A *1511:B 0.0010518
9 *1490:C *171:12 0.000625469
10 *1563:D *171:12 0.000258487
11 *1583:RESET_B *171:12 0.000555863
12 *84:18 *1511:B 0.00160568
13 *145:8 *1511:B 0.00205589
*RES
1 *1509:X *171:12 24.755 
2 *171:12 *1511:B 33.475 
*END

*D_NET *172 0.0031475
*CONN
*I *1511:C I *D sky130_fd_sc_hd__and3_1
*I *1510:Y O *D sky130_fd_sc_hd__nand2_1
*CAP
1 *1511:C 0.000931839
2 *1510:Y 0.000931839
3 *1511:C *1510:A 0.000655132
4 *1511:C *212:75 0.000240189
5 *1477:B *1511:C 1.33293e-05
6 *1494:C *1511:C 0.000160635
7 *1495:A *1511:C 9.50342e-06
8 *1570:RESET_B *1511:C 0
9 *84:18 *1511:C 0.000114342
10 *105:52 *1511:C 9.06885e-05
*RES
1 *1510:Y *1511:C 20.73 
*END

*D_NET *173 0.00906536
*CONN
*I *1512:A I *D sky130_fd_sc_hd__clkbuf_1
*I *1511:X O *D sky130_fd_sc_hd__and3_1
*CAP
1 *1512:A 0.00203993
2 *1511:X 0.00203993
3 *1512:A *218:22 0.000964045
4 *1502:A *1512:A 0.000414041
5 *1511:B *1512:A 0.000708318
6 *1591:RESET_B *1512:A 0.000145855
7 *77:14 *1512:A 0.000960761
8 *119:10 *1512:A 0.000965472
9 *145:8 *1512:A 0.000827009
*RES
1 *1511:X *1512:A 46.935 
*END

*D_NET *174 0.00314776
*CONN
*I *1514:C1 I *D sky130_fd_sc_hd__o211a_1
*I *1513:X O *D sky130_fd_sc_hd__a21o_1
*CAP
1 *1514:C1 0.000901709
2 *1513:X 0.000901709
3 *1514:C1 *184:24 0.000110999
4 *1462:A *1514:C1 4.43871e-06
5 *1513:B1 *1514:C1 0.000684323
6 *84:18 *1514:C1 0.000161742
7 *115:30 *1514:C1 7.20605e-05
8 *170:47 *1514:C1 0.000310777
*RES
1 *1513:X *1514:C1 21.18 
*END

*D_NET *175 0.0272157
*CONN
*I *1519:A2 I *D sky130_fd_sc_hd__a21oi_1
*I *1524:A2 I *D sky130_fd_sc_hd__a21boi_2
*I *1518:B I *D sky130_fd_sc_hd__nor2_1
*I *1516:C I *D sky130_fd_sc_hd__and3b_1
*I *1515:Y O *D sky130_fd_sc_hd__nor2_2
*CAP
1 *1519:A2 0.00263048
2 *1524:A2 0.00152804
3 *1518:B 4.77978e-05
4 *1516:C 0.000322346
5 *1515:Y 0.00203554
6 *175:62 0.00479318
7 *175:43 0.00127273
8 *175:18 0.00294816
9 *1516:C *1517:C1 1.00941e-05
10 *1516:C *207:20 0
11 *1518:B *181:24 8.90289e-05
12 *1519:A2 *1474:A 0.000858974
13 *1519:A2 *1519:A1 0.00013471
14 *1519:A2 *1575:CLK 7.9642e-06
15 *1519:A2 *186:21 0.000133423
16 *1519:A2 *191:72 0.000255239
17 *1519:A2 *213:35 0.000752806
18 *1524:A2 *1405:A 8.35106e-05
19 *1524:A2 *1450:B1 0.000119242
20 *1524:A2 *191:72 0.000267105
21 *1524:A2 *221:98 0.000211386
22 *1524:A2 *225:75 0.000402704
23 *175:18 *1401:A1 0
24 *175:18 *1515:A 0.000154242
25 *175:18 *180:29 0.000150838
26 *175:18 *183:96 5.61524e-05
27 *175:18 *187:50 0
28 *175:18 *188:20 0.000241518
29 *175:18 *188:160 0.000286846
30 *175:18 *215:14 1.52352e-05
31 *175:18 *219:49 0.00014037
32 *175:43 *179:18 4.1977e-05
33 *175:43 *219:49 0.00010969
34 *175:62 *1481:A 0.000372132
35 *175:62 *1483:B 0.000209955
36 *175:62 *179:18 0.000464962
37 *175:62 *208:94 0.000236533
38 *175:62 *213:35 0.00101525
39 *175:62 *219:49 0
40 *175:62 *222:30 5.64143e-05
41 *175:62 *225:75 4.41506e-05
42 *1404:B1 *175:18 0.000162096
43 *1414:B1 *1519:A2 0
44 *1424:A *1518:B 5.84698e-05
45 *1445:C1 *1524:A2 9.80943e-06
46 *1449:A *175:18 7.04513e-05
47 *1452:B *1524:A2 4.77719e-05
48 *1463:A *175:18 0.000435728
49 *1463:A *175:43 0.000232852
50 *1580:D *1519:A2 4.40241e-05
51 *1580:RESET_B *1519:A2 0.000897777
52 *1591:D *175:18 0.000791593
53 *1593:A *1516:C 0.000128419
54 *70:8 *1524:A2 0.000121541
55 *81:12 *1524:A2 0.000321522
56 *88:24 *1518:B 4.89295e-05
57 *91:10 *1524:A2 0.000134716
58 *93:51 *175:18 0.000521833
59 *108:30 *1516:C 0.00050668
60 *115:106 *1524:A2 0.000180766
61 *133:30 *175:18 0
*RES
1 *1515:Y *175:18 24.1819 
2 *175:18 *1516:C 5.6571 
3 *175:18 *175:43 2.62623 
4 *175:43 *1518:B 5.085 
5 *175:43 *175:62 21.305 
6 *175:62 *1524:A2 33.185 
7 *175:62 *1519:A2 48.57 
*END

*D_NET *176 0.0132387
*CONN
*I *1522:C I *D sky130_fd_sc_hd__or3_1
*I *1517:C1 I *D sky130_fd_sc_hd__a2111o_1
*I *1516:X O *D sky130_fd_sc_hd__and3b_1
*CAP
1 *1522:C 0
2 *1517:C1 0.00119132
3 *1516:X 0
4 *176:47 0.00217067
5 *176:4 0.00336199
6 *1517:C1 *1517:A2 7.76294e-05
7 *1517:C1 *1517:D1 0.000630448
8 *1517:C1 *1569:CLK 0
9 *1517:C1 *187:50 0.000165966
10 *1517:C1 *207:20 0.000219944
11 *176:47 *179:18 0.000131
12 *176:47 *190:69 0.000340941
13 *176:47 *194:14 0.000581516
14 *176:47 *213:35 0.000245206
15 *176:47 *223:35 0.000412513
16 *176:47 *225:14 0.000230435
17 *176:47 *225:75 0
18 *176:47 *227:26 3.92878e-05
19 *1399:A *176:47 0.000346016
20 *1417:A1 *1517:C1 2.22899e-05
21 *1443:A *176:47 7.73272e-05
22 *1454:B *1517:C1 4.66474e-05
23 *1476:B1 *176:47 0.000377121
24 *1516:C *1517:C1 1.00941e-05
25 *1561:D *176:47 0.000442103
26 *1567:D *176:47 0.000143002
27 *1571:RESET_B *1517:C1 9.29698e-05
28 *1587:RESET_B *176:47 0.000153638
29 *23:18 *1517:C1 0.000332222
30 *88:34 *1517:C1 0.000703083
31 *97:22 *1517:C1 0.000447005
32 *100:16 *176:47 9.37731e-05
33 *102:12 *176:47 3.18871e-05
34 *139:33 *176:47 0.000120655
*RES
1 *1516:X *176:4 1.6 
2 *176:4 *1517:C1 31.205 
3 *176:4 *176:47 48.8 
4 *176:47 *1522:C 1.6 
*END

*D_NET *177 0.0038704
*CONN
*I *1521:A I *D sky130_fd_sc_hd__buf_1
*I *1520:X O *D sky130_fd_sc_hd__or3_1
*CAP
1 *1521:A 0.000980644
2 *1520:X 0.000980644
3 *1521:A *193:28 0.00026617
4 *1521:A *194:22 0.000563454
5 *1521:A *205:30 2.8585e-06
6 *1501:B *1521:A 0.000220836
7 *46:16 *1521:A 0.000451866
8 *47:20 *1521:A 8.43862e-05
9 *47:33 *1521:A 0.000130453
10 *115:30 *1521:A 0.000189088
*RES
1 *1520:X *1521:A 24.39 
*END

*D_NET *178 0.00694955
*CONN
*I *1523:A I *D sky130_fd_sc_hd__clkbuf_1
*I *1522:X O *D sky130_fd_sc_hd__or3_1
*CAP
1 *1523:A 0.00176283
2 *1522:X 0.00176283
3 *1523:A *1395:A 0
4 *1523:A *1425:B 0.00163703
5 *1523:A *179:140 0.000442035
6 *1523:A *190:69 0
7 *1523:A *206:10 2.75229e-05
8 *1470:A *1523:A 1.49267e-05
9 *1575:D *1523:A 8.49205e-05
10 *26:20 *1523:A 0.000171243
11 *99:12 *1523:A 0.000667457
12 *129:97 *1523:A 1.35875e-05
13 *139:14 *1523:A 4.21518e-05
14 *139:33 *1523:A 0.000292196
15 *143:14 *1523:A 3.0807e-05
*RES
1 *1522:X *1523:A 48.28 
*END

*D_NET *179 0.0364355
*CONN
*I *1528:A I *D sky130_fd_sc_hd__inv_2
*I *1529:A I *D sky130_fd_sc_hd__inv_2
*I *1535:A I *D sky130_fd_sc_hd__inv_2
*I *1530:A I *D sky130_fd_sc_hd__inv_2
*I *1532:A I *D sky130_fd_sc_hd__inv_2
*I *1534:A I *D sky130_fd_sc_hd__inv_2
*I *1531:A I *D sky130_fd_sc_hd__inv_2
*I *1527:A I *D sky130_fd_sc_hd__inv_2
*I *1526:A I *D sky130_fd_sc_hd__inv_2
*I *1533:A I *D sky130_fd_sc_hd__inv_2
*I *1525:X O *D sky130_fd_sc_hd__buf_4
*CAP
1 *1528:A 0
2 *1529:A 0
3 *1535:A 0.000194412
4 *1530:A 0.000242781
5 *1532:A 0
6 *1534:A 0.00107411
7 *1531:A 0
8 *1527:A 0
9 *1526:A 0.000175075
10 *1533:A 0.000557102
11 *1525:X 2.91559e-05
12 *179:148 0.000777322
13 *179:140 0.000971052
14 *179:132 0.00115045
15 *179:100 0.00207576
16 *179:75 0.00102658
17 *179:28 0.00239013
18 *179:18 0.00215418
19 *179:6 0.00106984
20 *1526:A *1569:CLK 1.15487e-05
21 *1530:A *189:28 4.77757e-05
22 *1530:A *200:100 0.000700255
23 *1533:A *1398:A1_N 0.000832128
24 *1533:A *1398:B2 0.000201107
25 *1533:A *1592:A 0.000450909
26 *1533:A *189:42 0.000247807
27 *1533:A *189:53 0.00145591
28 *1534:A *1496:A 2.76541e-05
29 *1534:A *216:22 0.00205885
30 *179:18 *213:35 0.00072644
31 *179:18 *219:49 0
32 *179:28 *185:41 0.000461157
33 *179:28 *189:42 9.39826e-05
34 *179:28 *190:69 8.53113e-06
35 *179:28 *213:35 0.000115254
36 *179:75 *1596:A 3.99313e-05
37 *179:100 *222:10 0
38 *179:132 *1395:A 7.9642e-06
39 *179:132 *212:28 0.000300648
40 *179:140 *180:67 0.000190832
41 *179:148 *186:10 0.000545943
42 *179:148 *187:138 0.000184686
43 *1404:B1 *179:18 0.000340986
44 *1404:B1 *179:28 3.91308e-05
45 *1423:A *1534:A 0.000322656
46 *1432:A *1530:A 4.66108e-05
47 *1440:B *1530:A 8.15598e-05
48 *1443:A *179:132 4.48656e-05
49 *1445:A1 *179:100 0.000194291
50 *1445:A1 *179:132 0.00010962
51 *1448:C *179:6 8.23457e-05
52 *1448:C *179:75 0.000429984
53 *1461:B *179:140 0.000292508
54 *1467:A *179:100 0.000417521
55 *1469:B *179:75 9.50342e-06
56 *1469:B *179:100 0.000116309
57 *1491:A *179:132 8.73147e-06
58 *1504:A *1534:A 0.000689988
59 *1504:A *179:75 5.44996e-05
60 *1504:B *1534:A 4.76263e-05
61 *1523:A *179:140 0.000442035
62 *1565:RESET_B *1534:A 0.000526535
63 *1565:RESET_B *179:100 8.53113e-06
64 *1566:RESET_B *179:75 0.000211247
65 *1569:D *1526:A 0.000309143
66 *1569:RESET_B *1526:A 0.000422907
67 *1570:RESET_B *1533:A 0.000396243
68 *1580:RESET_B *179:100 0.000193128
69 *1580:RESET_B *179:132 0.000897131
70 *1588:RESET_B *179:28 0.000280078
71 *30:8 *179:132 0.000374517
72 *36:20 *1534:A 0.000248435
73 *50:12 *179:148 2.4997e-05
74 *51:14 *179:148 0.000679333
75 *100:16 *179:75 0.000221291
76 *103:33 *179:75 0.000271434
77 *130:38 *179:132 0.000119831
78 *132:8 *179:132 0.000646231
79 *133:30 *1534:A 0.000168785
80 *133:30 *179:100 0.000152293
81 *134:14 *179:140 0.000241613
82 *138:10 *179:100 3.59904e-05
83 *156:25 *179:6 4.41506e-05
84 *156:25 *179:75 0.0002386
85 *165:39 *1530:A 0.000850708
86 *168:14 *179:75 0.000435504
87 *168:14 *179:100 0.000826777
88 *170:14 *1533:A 0.000159814
89 *170:14 *179:28 0.000444266
90 *175:43 *179:18 4.1977e-05
91 *175:62 *179:18 0.000464962
92 *176:47 *179:18 0.000131
*RES
1 *1525:X *179:6 2.395 
2 *179:6 *179:18 15.89 
3 *179:18 *179:28 26.905 
4 *179:28 *1533:A 26.445 
5 *179:28 *1526:A 8.91 
6 *179:18 *1527:A 3.6 
7 *179:6 *179:75 18.17 
8 *179:75 *1531:A 3.6 
9 *179:75 *179:100 19.335 
10 *179:100 *1534:A 34.895 
11 *179:100 *1532:A 1.6 
12 *179:100 *179:132 20.8 
13 *179:132 *179:140 17.83 
14 *179:140 *179:148 14.785 
15 *179:148 *1530:A 16.1 
16 *179:148 *1535:A 4.12 
17 *179:140 *1529:A 1.6 
18 *179:132 *1528:A 1.6 
*END

*D_NET *180 0.0367338
*CONN
*I *1543:A I *D sky130_fd_sc_hd__inv_2
*I *1544:A I *D sky130_fd_sc_hd__inv_2
*I *1538:A I *D sky130_fd_sc_hd__inv_2
*I *1537:A I *D sky130_fd_sc_hd__inv_2
*I *1540:A I *D sky130_fd_sc_hd__inv_2
*I *1542:A I *D sky130_fd_sc_hd__inv_2
*I *1541:A I *D sky130_fd_sc_hd__inv_2
*I *1545:A I *D sky130_fd_sc_hd__inv_2
*I *1539:A I *D sky130_fd_sc_hd__inv_2
*I *1546:A I *D sky130_fd_sc_hd__inv_2
*I *1536:X O *D sky130_fd_sc_hd__clkbuf_8
*CAP
1 *1543:A 0
2 *1544:A 0.000100933
3 *1538:A 1.81111e-05
4 *1537:A 0.00012811
5 *1540:A 0.000330448
6 *1542:A 0
7 *1541:A 9.276e-05
8 *1545:A 4.62554e-05
9 *1539:A 0.000108792
10 *1546:A 0
11 *1536:X 0.00111918
12 *180:143 0.000793584
13 *180:123 0.00100072
14 *180:86 0.00036209
15 *180:71 0.00108623
16 *180:67 0.00226271
17 *180:56 0.00187824
18 *180:35 0.00162246
19 *180:29 0.00196368
20 *180:14 0.00190223
21 *1537:A *1584:CLK 0.000110497
22 *1537:A *199:36 8.52845e-05
23 *1538:A *221:84 4.66108e-05
24 *1539:A *1410:B 4.54034e-05
25 *1540:A *1457:B1 0.00051156
26 *1540:A *195:16 4.77807e-05
27 *1540:A *201:72 0
28 *1540:A *202:66 4.87939e-05
29 *1541:A *1457:A1 2.68721e-05
30 *1544:A *1481:A 4.66108e-05
31 *180:14 *1407:B 2.49909e-05
32 *180:14 *1407:C 0.00116459
33 *180:14 *1407:D 2.34559e-05
34 *180:14 *1429:B1 0.00118663
35 *180:14 *1486:A2 5.16701e-05
36 *180:14 *1553:A 0.000269343
37 *180:14 *200:10 0.000104458
38 *180:29 *1407:B 1.43622e-05
39 *180:29 *1429:B1 3.07136e-05
40 *180:29 *219:47 6.62963e-05
41 *180:29 *219:49 0.00211985
42 *180:29 *220:10 0.000342333
43 *180:35 *1561:CLK 0.00038699
44 *180:35 *185:41 0.000202813
45 *180:35 *210:14 0.000155601
46 *180:35 *210:22 0.000233126
47 *180:56 *1410:B 0.000305175
48 *180:56 *1561:CLK 5.83121e-06
49 *180:56 *210:14 4.40325e-06
50 *180:67 *1580:CLK 9.37116e-05
51 *180:67 *1584:CLK 0.000155841
52 *180:67 *1597:A 0.000170403
53 *180:123 *219:49 0.000388316
54 *180:143 *1450:B1 0.000157595
55 *180:143 *1478:A 4.66108e-05
56 *180:143 *188:76 0
57 *180:143 *189:32 3.59784e-05
58 *180:143 *207:122 0.000155928
59 *180:143 *221:84 7.58797e-05
60 *1404:B1 *180:29 0.0015252
61 *1404:B1 *180:123 0.000380945
62 *1414:A3 *180:71 0.000309612
63 *1427:B *180:14 2.69153e-05
64 *1427:C *180:14 9.56017e-06
65 *1433:B *1538:A 1.08758e-05
66 *1433:B *1544:A 0.000199039
67 *1433:B *180:143 9.53428e-06
68 *1448:B *180:143 0.000233929
69 *1452:B *1544:A 0.000194997
70 *1452:B *180:143 0.000474821
71 *1457:A2 *1540:A 0
72 *1457:A2 *1541:A 0.000116853
73 *1459:C *180:14 4.66108e-05
74 *1459:C *180:29 8.41384e-05
75 *1461:B *180:67 0
76 *1462:C *180:56 0.000288126
77 *1462:C *180:67 6.2001e-05
78 *1463:A *180:14 0.000116752
79 *1463:A *180:29 0.000180093
80 *1469:B *1544:A 4.66108e-05
81 *1471:C *1539:A 7.5655e-05
82 *1471:C *180:56 4.46495e-05
83 *1486:A4 *180:14 0.000187388
84 *1505:A1 *1540:A 0
85 *1505:C1 *1540:A 1.79536e-05
86 *1561:D *180:35 0.000596769
87 *1561:D *180:56 4.24744e-05
88 *1571:RESET_B *180:143 0.000118479
89 *1575:RESET_B *1540:A 0.000193993
90 *1576:D *180:123 0.000203965
91 *1576:D *180:143 0.00019234
92 *1576:RESET_B *180:143 0.000342551
93 *1581:D *180:143 0.000240442
94 *57:20 *1539:A 8.52883e-05
95 *66:8 *1545:A 0.000109898
96 *67:12 *180:29 4.89395e-05
97 *73:16 *180:14 0.000588786
98 *85:10 *180:143 6.58339e-05
99 *92:16 *180:143 5.83121e-06
100 *99:20 *1540:A 4.66108e-05
101 *105:77 *180:14 4.71087e-05
102 *120:30 *1539:A 8.64421e-05
103 *129:97 *1540:A 6.19533e-05
104 *134:14 *180:67 0
105 *134:26 *180:56 2.34331e-05
106 *139:14 *180:56 0.00030001
107 *139:14 *180:67 0.00101384
108 *141:10 *180:56 0
109 *143:14 *180:56 1.10951e-05
110 *143:14 *180:67 0.00045969
111 *146:12 *180:143 0.0013577
112 *147:118 *180:143 0.000139231
113 *147:149 *180:143 0.000292174
114 *156:10 *180:56 0.00112007
115 *156:25 *1545:A 0.000196045
116 *175:18 *180:29 0.000150838
117 *179:140 *180:67 0.000190832
*RES
1 *1536:X *180:14 36.695 
2 *180:14 *1546:A 1.6 
3 *180:14 *180:29 29.72 
4 *180:29 *180:35 19.63 
5 *180:35 *1539:A 6.285 
6 *180:35 *180:56 20.23 
7 *180:56 *1545:A 5.43 
8 *180:56 *180:67 26.88 
9 *180:67 *180:71 16.595 
10 *180:71 *1541:A 7.6025 
11 *180:71 *180:86 0.45 
12 *180:86 *1542:A 1.6 
13 *180:86 *1540:A 14.015 
14 *180:67 *1537:A 6.285 
15 *180:29 *180:123 10.25 
16 *180:123 *180:143 31.91 
17 *180:143 *1538:A 2.05 
18 *180:143 *1544:A 8.45 
19 *180:123 *1543:A 1.6 
*END

*D_NET *181 0.0314986
*CONN
*I *1549:A I *D sky130_fd_sc_hd__inv_2
*I *1550:A I *D sky130_fd_sc_hd__inv_2
*I *1554:A I *D sky130_fd_sc_hd__inv_2
*I *1548:A I *D sky130_fd_sc_hd__inv_2
*I *1553:A I *D sky130_fd_sc_hd__inv_2
*I *1555:A I *D sky130_fd_sc_hd__inv_2
*I *1552:A I *D sky130_fd_sc_hd__inv_2
*I *1557:A I *D sky130_fd_sc_hd__inv_2
*I *1551:A I *D sky130_fd_sc_hd__inv_2
*I *1556:A I *D sky130_fd_sc_hd__inv_2
*I *1547:X O *D sky130_fd_sc_hd__clkbuf_8
*CAP
1 *1549:A 0
2 *1550:A 0
3 *1554:A 0
4 *1548:A 0
5 *1553:A 0.00250186
6 *1555:A 2.4121e-05
7 *1552:A 0
8 *1557:A 0
9 *1551:A 0.000408189
10 *1556:A 4.91732e-05
11 *1547:X 0.000520711
12 *181:103 0.00359476
13 *181:95 0.0013142
14 *181:57 0.000649321
15 *181:51 0.000666353
16 *181:32 0.000871482
17 *181:28 0.000472602
18 *181:24 0.00297364
19 *181:18 0.00368183
20 *181:16 0.000693977
21 *181:10 0.000676413
22 *1551:A *1607:A 0.000879069
23 *1551:A *200:90 0.000153812
24 *1551:A *221:12 0
25 *1553:A *1536:A 0.000384844
26 *1553:A *191:86 0
27 *1555:A *1568:CLK 8.23457e-05
28 *1555:A *225:14 8.23457e-05
29 *1556:A *1411:C 0.000123977
30 *181:10 *1408:C 9.23635e-05
31 *181:10 *1433:A 0.0003565
32 *181:10 *185:20 0
33 *181:10 *216:26 0
34 *181:10 *221:98 0.000132821
35 *181:16 *216:26 1.22591e-05
36 *181:16 *221:98 0.000181919
37 *181:18 *216:26 0.00028404
38 *181:18 *216:41 0.000318866
39 *181:24 *1460:A 4.7003e-05
40 *181:24 *189:28 0.000561536
41 *181:24 *216:41 0.000210839
42 *181:51 *1411:A 0.000126768
43 *181:51 *1411:C 0.000618185
44 *181:51 *1607:A 5.97443e-05
45 *181:57 *1607:A 0.000184395
46 *181:57 *200:90 1.71689e-05
47 *181:103 *1559:A 0.000194694
48 *1398:A2_N *1553:A 0
49 *1398:A2_N *181:103 0
50 *1402:A *181:103 0
51 *1411:D *181:51 8.46717e-05
52 *1423:A *181:18 0.000189046
53 *1424:A *181:24 0.000199856
54 *1427:C *1553:A 7.49748e-05
55 *1440:B *181:28 0.000148092
56 *1440:B *181:32 0.000116165
57 *1460:B *181:24 0.000169717
58 *1479:C *181:16 0
59 *1479:C *181:18 0
60 *1485:B1 *1553:A 5.33085e-05
61 *1485:B1 *181:103 0.00142176
62 *1492:B *181:18 2.3228e-05
63 *1493:B *181:18 0.000184996
64 *1495:A *181:32 0.000189286
65 *1507:B *181:24 0.000732599
66 *1510:B *1553:A 0.000143266
67 *1518:B *181:24 8.90289e-05
68 *1524:B1_N *181:18 0.000342233
69 *1564:RESET_B *181:24 0.000121811
70 *1570:D *1553:A 3.80047e-05
71 *1587:RESET_B *181:28 0.000155928
72 *1587:RESET_B *181:32 5.16348e-05
73 *68:12 *181:103 0.000195026
74 *70:10 *181:18 0.000556503
75 *70:10 *181:24 0.00011741
76 *72:10 *181:32 0.000436972
77 *79:12 *181:103 0.000268739
78 *84:40 *181:103 0
79 *88:24 *181:24 2.58336e-05
80 *88:34 *181:24 0.000487439
81 *89:14 *1553:A 5.64507e-05
82 *116:28 *1553:A 0
83 *120:30 *181:32 0.000289691
84 *135:20 *181:24 4.66108e-05
85 *155:24 *181:24 1.48096e-05
86 *165:39 *181:32 0
87 *180:14 *1553:A 0.000269343
*RES
1 *1547:X *181:10 13.845 
2 *181:10 *181:16 3.3 
3 *181:16 *181:18 16.425 
4 *181:18 *181:24 48.32 
5 *181:24 *181:28 3.89 
6 *181:28 *181:32 12.05 
7 *181:32 *1556:A 2.74 
8 *181:32 *181:51 11.375 
9 *181:51 *181:57 5.085 
10 *181:57 *1551:A 14.445 
11 *181:57 *1557:A 3.6 
12 *181:51 *1552:A 3.6 
13 *181:28 *1555:A 4.395 
14 *181:18 *181:95 4.865 
15 *181:95 *181:103 27.605 
16 *181:103 *1553:A 47.145 
17 *181:103 *1548:A 3.6 
18 *181:95 *1554:A 1.6 
19 *181:16 *1550:A 3.6 
20 *181:10 *1549:A 3.6 
*END

*D_NET *182 0.0176016
*CONN
*I *1597:A I *D sky130_fd_sc_hd__clkbuf_16
*I *1596:A I *D sky130_fd_sc_hd__clkbuf_16
*I *1595:A I *D sky130_fd_sc_hd__clkbuf_16
*I *1594:A I *D sky130_fd_sc_hd__clkbuf_16
*I *1593:X O *D sky130_fd_sc_hd__clkbuf_16
*CAP
1 *1597:A 0.000729982
2 *1596:A 0.000439766
3 *1595:A 0.00121637
4 *1594:A 6.76062e-05
5 *1593:X 8.44286e-05
6 *182:48 0.00186376
7 *182:18 0.00268203
8 *182:14 0.0021765
9 *1594:A *224:12 2.20898e-05
10 *1595:A *1392:A 0.000283243
11 *1595:A *1473:A 3.37523e-05
12 *1596:A *221:84 0.000583351
13 *1596:A *222:30 0.000151329
14 *1597:A *221:84 0.000567524
15 *182:18 *223:35 0.000105524
16 *182:48 *223:35 2.08568e-05
17 *182:48 *225:75 0.000151845
18 *1419:A *1594:A 3.92878e-05
19 *1445:B1 *182:18 0.000364784
20 *1445:B1 *182:48 0.00145557
21 *1452:B *182:18 0
22 *1452:C *1595:A 0.000165087
23 *1502:A *1594:A 4.57523e-06
24 *1502:A *1595:A 2.99778e-05
25 *1502:A *182:18 0.00168726
26 *1502:A *182:48 0.0016159
27 *1504:A *1596:A 1.12261e-05
28 *1566:RESET_B *1596:A 5.44225e-05
29 *1566:RESET_B *1597:A 0.000326868
30 *1567:D *182:18 0
31 *1583:RESET_B *1595:A 0.000101477
32 *43:26 *1595:A 0
33 *47:64 *182:14 1.88656e-05
34 *119:10 *182:18 0.000126391
35 *125:12 *182:14 1.88656e-05
36 *142:28 *182:14 2.03757e-05
37 *143:14 *1597:A 0.000170403
38 *179:75 *1596:A 3.99313e-05
39 *180:67 *1597:A 0.000170403
*RES
1 *1593:X *182:14 4.9579 
2 *182:14 *182:18 4.1556 
3 *182:18 *1594:A 4.65463 
4 *182:18 *1595:A 8.04917 
5 *182:14 *182:48 3.6388 
6 *182:48 *1596:A 5.52863 
7 *182:48 *1597:A 7.90983 
*END

*D_NET *183 0.0214709
*CONN
*I *1573:CLK I *D sky130_fd_sc_hd__dfrtp_1
*I *1591:CLK I *D sky130_fd_sc_hd__dfrtp_4
*I *1598:A I *D sky130_fd_sc_hd__clkinv_2
*I *1569:CLK I *D sky130_fd_sc_hd__dfrtp_2
*I *1571:CLK I *D sky130_fd_sc_hd__dfrtp_4
*I *1589:CLK I *D sky130_fd_sc_hd__dfrtp_4
*I *1582:CLK I *D sky130_fd_sc_hd__dfrtp_1
*I *1570:CLK I *D sky130_fd_sc_hd__dfrtp_4
*I *1578:CLK I *D sky130_fd_sc_hd__dfrtp_4
*I *1594:X O *D sky130_fd_sc_hd__clkbuf_16
*CAP
1 *1573:CLK 0
2 *1591:CLK 0.000310956
3 *1598:A 0
4 *1569:CLK 0.00175233
5 *1571:CLK 3.97457e-05
6 *1589:CLK 0
7 *1582:CLK 0
8 *1570:CLK 0.00103134
9 *1578:CLK 0.000479826
10 *1594:X 9.27445e-05
11 *183:103 0.000384938
12 *183:96 0.000240975
13 *183:64 0.00254643
14 *183:22 0.00182239
15 *183:16 0.000568403
16 *183:10 0.00051052
17 *183:8 0.00116694
18 *183:6 0.000418981
19 *1570:CLK *1406:A2 4.66108e-05
20 *1570:CLK *201:14 0.000143838
21 *1578:CLK *1406:A1 0
22 *1578:CLK *1406:B1 6.04973e-05
23 *1578:CLK *1486:A3 0.000181296
24 *1591:CLK *210:40 0.000193136
25 *183:6 *190:18 0.000147727
26 *183:16 *201:14 0.000721854
27 *183:16 *217:29 0.000713653
28 *183:22 *1406:B1 5.13751e-05
29 *183:22 *201:14 0.000807458
30 *183:22 *217:29 0.000655331
31 *183:64 *1497:B 6.70324e-06
32 *183:64 *188:20 0.000109198
33 *183:64 *213:61 0
34 *183:96 *1515:A 5.20249e-05
35 *183:96 *190:31 0.000126037
36 *1417:A1 *1569:CLK 1.9873e-05
37 *1427:A *1578:CLK 5.8684e-05
38 *1427:A *183:22 2.05583e-05
39 *1428:A *1578:CLK 0.000241695
40 *1428:A *183:22 0.000159046
41 *1430:B *1578:CLK 3.97438e-05
42 *1498:A1 *183:16 0.000107048
43 *1498:B1 *183:64 0
44 *1499:B *1591:CLK 0.000153969
45 *1517:C1 *1569:CLK 0
46 *1526:A *1569:CLK 1.15487e-05
47 *1569:D *1569:CLK 4.41642e-05
48 *1569:RESET_B *1569:CLK 0.00131242
49 *1570:RESET_B *1570:CLK 1.37141e-05
50 *1571:D *1569:CLK 8.30853e-06
51 *1571:D *183:64 0.0010567
52 *1571:RESET_B *1571:CLK 8.52845e-05
53 *1573:D *1591:CLK 2.69153e-05
54 *1573:RESET_B *1591:CLK 0.000120832
55 *1578:D *1578:CLK 7.60965e-05
56 *1586:RESET_B *183:16 0.000115127
57 *1589:D *183:10 6.35278e-05
58 *1589:D *183:16 0.000126695
59 *1589:RESET_B *183:6 0.00029063
60 *1589:RESET_B *183:8 0.00030022
61 *1591:D *1591:CLK 0.000341408
62 *1591:D *183:96 0.000183522
63 *1591:D *183:103 9.5335e-05
64 *1591:RESET_B *183:8 1.19138e-05
65 *1591:RESET_B *183:10 0.000194345
66 *1591:RESET_B *183:16 2.51954e-05
67 *23:18 *1569:CLK 0.000171514
68 *97:22 *1571:CLK 4.88478e-05
69 *133:30 *1569:CLK 9.15884e-05
70 *133:30 *183:64 7.70218e-05
71 *163:16 *1591:CLK 1.19928e-05
72 *163:16 *183:96 0.000168726
73 *163:16 *183:103 0.000157291
74 *175:18 *183:96 5.61524e-05
*RES
1 *1594:X *183:6 4.465 
2 *183:6 *183:8 3.21 
3 *183:8 *183:10 4.935 
4 *183:10 *183:16 12.695 
5 *183:16 *183:22 11.37 
6 *183:22 *1578:CLK 13.995 
7 *183:22 *1570:CLK 15.705 
8 *183:16 *1582:CLK 3.6 
9 *183:10 *1589:CLK 1.6 
10 *183:8 *183:64 17.195 
11 *183:64 *1571:CLK 4.755 
12 *183:64 *1569:CLK 26.7 
13 *183:6 *183:96 9.01 
14 *183:96 *1598:A 1.6 
15 *183:96 *183:103 2.52 
16 *183:103 *1591:CLK 9.655 
17 *183:103 *1573:CLK 1.6 
*END

*D_NET *184 0.0147077
*CONN
*I *1564:CLK I *D sky130_fd_sc_hd__dfrtp_4
*I *1572:CLK I *D sky130_fd_sc_hd__dfrtp_2
*I *1577:CLK I *D sky130_fd_sc_hd__dfrtp_4
*I *1583:CLK I *D sky130_fd_sc_hd__dfrtp_1
*I *1566:CLK I *D sky130_fd_sc_hd__dfrtp_2
*I *1574:CLK I *D sky130_fd_sc_hd__dfrtp_1
*I *1562:CLK I *D sky130_fd_sc_hd__dfrtp_4
*I *1567:CLK I *D sky130_fd_sc_hd__dfrtp_2
*I *1585:CLK I *D sky130_fd_sc_hd__dfrtp_4
*I *1560:CLK I *D sky130_fd_sc_hd__dfrtp_4
*I *1586:CLK I *D sky130_fd_sc_hd__dfrtp_1
*I *1595:X O *D sky130_fd_sc_hd__clkbuf_16
*CAP
1 *1564:CLK 0
2 *1572:CLK 0.000170315
3 *1577:CLK 0
4 *1583:CLK 0
5 *1566:CLK 0.000219489
6 *1574:CLK 0.000218364
7 *1562:CLK 0.000183178
8 *1567:CLK 0.000137731
9 *1585:CLK 1.94946e-05
10 *1560:CLK 0
11 *1586:CLK 0.000582459
12 *1595:X 0
13 *184:112 0.000266777
14 *184:108 0.000407165
15 *184:84 0.000454307
16 *184:28 0.000790588
17 *184:24 0.000630958
18 *184:14 0.000651394
19 *184:12 0.000346594
20 *184:10 0.000357808
21 *184:8 0.000440853
22 *184:6 0.000430381
23 *1562:CLK *1604:A 3.1835e-05
24 *1566:CLK *1473:A 0.000153686
25 *1567:CLK *1392:C 0.000221857
26 *1572:CLK *201:46 0
27 *1574:CLK *205:30 0.000495107
28 *1585:CLK *217:10 8.49205e-05
29 *184:8 *194:22 0.000376905
30 *184:10 *194:22 0.000320348
31 *184:12 *194:22 0.000151927
32 *184:14 *1509:A 0
33 *184:14 *194:22 4.20983e-05
34 *184:24 *1509:A 7.24582e-05
35 *184:24 *217:10 0.000189845
36 *184:24 *217:12 0.0001249
37 *184:108 *1558:A 0.000102833
38 *184:108 *194:22 0.00085703
39 *184:112 *201:46 0
40 *1427:C *1586:CLK 0.000663178
41 *1431:A *184:84 0.000121043
42 *1432:A *184:112 7.21296e-06
43 *1462:A *184:24 0
44 *1501:A *184:84 2.49909e-05
45 *1501:C *184:84 2.60713e-05
46 *1513:A1 *1567:CLK 0.000607461
47 *1513:A2 *1567:CLK 0.00011577
48 *1514:C1 *184:24 0.000110999
49 *1560:D *1586:CLK 2.0172e-05
50 *1560:D *184:28 0.000112133
51 *1562:D *1562:CLK 6.10863e-05
52 *1562:RESET_B *184:8 0.000383431
53 *1562:RESET_B *184:10 0.000328192
54 *1562:RESET_B *184:12 0.000181376
55 *1562:RESET_B *184:14 5.39961e-05
56 *1562:RESET_B *184:108 0.000864072
57 *1564:D *184:108 6.56968e-05
58 *1572:D *1572:CLK 6.61627e-05
59 *1574:D *1574:CLK 1.16578e-05
60 *1583:D *184:84 0.000591598
61 *1585:D *1585:CLK 5.83121e-06
62 *1585:D *184:28 3.05295e-05
63 *1585:RESET_B *1585:CLK 2.59926e-05
64 *1585:RESET_B *184:24 0.000131658
65 *67:12 *1566:CLK 9.33585e-05
66 *105:121 *184:108 0.000118081
67 *115:30 *184:14 0
68 *115:30 *184:24 0
69 *165:35 *184:108 8.35106e-05
70 *165:39 *1572:CLK 9.20076e-05
71 *165:39 *184:112 9.24127e-05
72 *171:12 *1566:CLK 8.44308e-05
*RES
1 *1595:X *184:6 3.6 
2 *184:6 *184:8 4.695 
3 *184:8 *184:10 3.93 
4 *184:10 *184:12 2.145 
5 *184:12 *184:14 2.145 
6 *184:14 *184:24 11.645 
7 *184:24 *184:28 6.185 
8 *184:28 *1586:CLK 16.2 
9 *184:28 *1560:CLK 3.6 
10 *184:24 *1585:CLK 2.395 
11 *184:14 *1567:CLK 9.225 
12 *184:12 *1562:CLK 6.465 
13 *184:10 *1574:CLK 8.19 
14 *184:8 *184:84 7.625 
15 *184:84 *1566:CLK 10.01 
16 *184:84 *1583:CLK 1.6 
17 *184:6 *184:108 14.225 
18 *184:108 *184:112 4.145 
19 *184:112 *1577:CLK 3.6 
20 *184:112 *1572:CLK 6.885 
21 *184:108 *1564:CLK 1.6 
*END

*D_NET *185 0.0262701
*CONN
*I *1565:CLK I *D sky130_fd_sc_hd__dfrtp_2
*I *1581:CLK I *D sky130_fd_sc_hd__dfrtp_2
*I *1576:CLK I *D sky130_fd_sc_hd__dfrtp_4
*I *1561:CLK I *D sky130_fd_sc_hd__dfrtp_4
*I *1599:A I *D sky130_fd_sc_hd__clkinvlp_4
*I *1587:CLK I *D sky130_fd_sc_hd__dfrtp_4
*I *1588:CLK I *D sky130_fd_sc_hd__dfrtp_4
*I *1596:X O *D sky130_fd_sc_hd__clkbuf_16
*CAP
1 *1565:CLK 0.00041526
2 *1581:CLK 0
3 *1576:CLK 0
4 *1561:CLK 0.000462609
5 *1599:A 0.000143529
6 *1587:CLK 0
7 *1588:CLK 0.000396449
8 *1596:X 0.000883649
9 *185:45 0.000541847
10 *185:41 0.00162737
11 *185:35 0.00125019
12 *185:20 0.00206515
13 *185:16 0.00238748
14 *185:8 0.00250144
15 *1561:CLK *190:69 0.000508919
16 *1565:CLK *1496:A 0
17 *1565:CLK *216:18 7.23533e-05
18 *1565:CLK *216:22 2.49909e-05
19 *1588:CLK *191:84 3.56987e-05
20 *1599:A *1413:D 8.23457e-05
21 *1599:A *227:26 5.28204e-05
22 *185:8 *1395:B 0
23 *185:8 *188:113 9.37731e-05
24 *185:8 *224:18 0.000974981
25 *185:16 *1496:A 0.000393024
26 *185:16 *199:28 0.000668549
27 *185:20 *1403:A1 0.000164672
28 *185:20 *1405:A 0.00115901
29 *185:20 *187:22 7.90755e-05
30 *185:35 *191:84 2.99981e-06
31 *185:41 *190:69 0.00026449
32 *185:45 *222:30 0.000107207
33 *1414:A2 *185:16 0
34 *1414:A2 *185:20 0
35 *1424:A *1599:A 0
36 *1427:A *185:35 0.000268246
37 *1443:A *1565:CLK 0
38 *1443:A *185:8 0
39 *1448:A *185:20 9.24881e-05
40 *1448:A *185:35 0.000262706
41 *1479:C *185:20 0
42 *1498:A1 *185:16 0.000154843
43 *1502:A *185:8 0.000169048
44 *1504:A *185:16 4.66108e-05
45 *1504:B *185:8 0.00122283
46 *1504:B *185:16 0.00047113
47 *1519:B1 *185:8 0.000120303
48 *1561:D *1561:CLK 0.000595093
49 *1571:RESET_B *185:35 0.000758176
50 *1571:RESET_B *185:41 0.000321976
51 *1581:D *185:20 0.000207887
52 *1584:D *1565:CLK 3.07153e-05
53 *1593:A *185:16 0
54 *1593:A *185:20 0.000119961
55 *1593:A *185:45 1.88656e-05
56 *36:20 *1565:CLK 2.31106e-05
57 *47:79 *185:45 2.75462e-05
58 *65:20 *185:45 0.00012993
59 *93:18 *185:20 0.00020282
60 *95:82 *185:35 0.000345204
61 *95:82 *185:41 0.000169361
62 *96:12 *185:20 0
63 *97:44 *185:20 0
64 *97:53 *185:20 0
65 *102:12 *185:8 0
66 *103:33 *1599:A 0.000191427
67 *103:33 *185:45 0.00113357
68 *134:26 *185:45 0.000108322
69 *134:40 *185:45 0.000661236
70 *179:28 *185:41 0.000461157
71 *180:35 *1561:CLK 0.00038699
72 *180:35 *185:41 0.000202813
73 *180:56 *1561:CLK 5.83121e-06
74 *181:10 *185:20 0
*RES
1 *1596:X *185:8 27.165 
2 *185:8 *185:16 27.1 
3 *185:16 *185:20 28.115 
4 *185:20 *1588:CLK 6.025 
5 *185:20 *185:35 13.895 
6 *185:35 *185:41 18.455 
7 *185:41 *185:45 16.13 
8 *185:45 *1587:CLK 3.6 
9 *185:45 *1599:A 6.795 
10 *185:41 *1561:CLK 13.78 
11 *185:35 *1576:CLK 3.6 
12 *185:16 *1581:CLK 3.6 
13 *185:8 *1565:CLK 8.97 
*END

*D_NET *186 0.0190693
*CONN
*I *1600:A I *D sky130_fd_sc_hd__bufinv_16
*I *1568:CLK I *D sky130_fd_sc_hd__dfrtp_4
*I *1579:CLK I *D sky130_fd_sc_hd__dfrtp_2
*I *1563:CLK I *D sky130_fd_sc_hd__dfrtp_1
*I *1575:CLK I *D sky130_fd_sc_hd__dfrtp_2
*I *1584:CLK I *D sky130_fd_sc_hd__dfrtp_4
*I *1580:CLK I *D sky130_fd_sc_hd__dfrtp_2
*I *1590:CLK I *D sky130_fd_sc_hd__dfrtp_4
*I *1597:X O *D sky130_fd_sc_hd__clkbuf_16
*CAP
1 *1600:A 0.000627801
2 *1568:CLK 0.000113132
3 *1579:CLK 0
4 *1563:CLK 0.000412384
5 *1575:CLK 0.000208155
6 *1584:CLK 0.000549522
7 *1580:CLK 7.44222e-05
8 *1590:CLK 6.21341e-05
9 *1597:X 0.000151276
10 *186:74 0.000611013
11 *186:72 0.000730924
12 *186:70 0.0012409
13 *186:27 0.000792911
14 *186:21 0.000671887
15 *186:10 0.000647645
16 *186:6 0.000635955
17 *1563:CLK *203:18 0.000197397
18 *1568:CLK *225:14 0.000152833
19 *1575:CLK *1421:B 0
20 *1575:CLK *1558:A 8.10457e-05
21 *1575:CLK *191:8 2.07184e-05
22 *1575:CLK *191:43 4.66108e-05
23 *1575:CLK *206:10 0.000198203
24 *1580:CLK *1474:A 0.000112111
25 *1584:CLK *1461:A 8.08153e-06
26 *186:10 *1425:C 2.50751e-05
27 *186:10 *1519:A1 7.59112e-05
28 *186:10 *1558:A 0.000131056
29 *186:10 *187:138 0.0006708
30 *186:21 *1519:A1 0.00020332
31 *186:21 *206:10 0
32 *186:27 *1474:B 0.000291658
33 *186:70 *187:138 0.000204473
34 *186:72 *1558:A 0.000183138
35 *186:74 *1558:A 0.000197386
36 *1432:A *1563:CLK 0.000322084
37 *1432:A *186:72 0.000203769
38 *1432:A *186:74 0.000724659
39 *1461:B *1580:CLK 3.3021e-05
40 *1461:B *1584:CLK 7.6867e-05
41 *1462:C *1584:CLK 6.03517e-05
42 *1474:C *186:27 0.000377729
43 *1488:B *1600:A 4.1745e-05
44 *1499:B *1563:CLK 0.000555848
45 *1519:A2 *1575:CLK 7.9642e-06
46 *1519:A2 *186:21 0.000133423
47 *1519:B1 *186:27 0.000870555
48 *1537:A *1584:CLK 0.000110497
49 *1555:A *1568:CLK 8.23457e-05
50 *1562:RESET_B *1563:CLK 0.000322084
51 *1562:RESET_B *186:72 0.000184392
52 *1562:RESET_B *186:74 0.000716822
53 *1563:D *1563:CLK 0.000247085
54 *1568:D *1568:CLK 0.000372579
55 *1572:D *1563:CLK 0.00125087
56 *1579:D *186:70 0.000185633
57 *1579:D *186:72 0.000373048
58 *1584:D *1584:CLK 8.84681e-05
59 *1590:D *1590:CLK 6.81301e-05
60 *42:12 *1584:CLK 0
61 *43:8 *1584:CLK 0.000236126
62 *50:12 *186:10 0.000107775
63 *50:12 *186:21 3.86214e-05
64 *50:12 *186:72 0
65 *51:14 *186:70 0
66 *51:14 *186:72 0
67 *129:103 *1575:CLK 0.00015148
68 *179:148 *186:10 0.000545943
69 *180:67 *1580:CLK 9.37116e-05
70 *180:67 *1584:CLK 0.000155841
*RES
1 *1597:X *186:6 3.43 
2 *186:6 *186:10 12.56 
3 *186:10 *1590:CLK 4.74 
4 *186:10 *186:21 6.225 
5 *186:21 *186:27 12.04 
6 *186:27 *1580:CLK 5.745 
7 *186:27 *1584:CLK 15.21 
8 *186:21 *1575:CLK 9.045 
9 *186:6 *186:70 6.725 
10 *186:70 *186:72 10.305 
11 *186:72 *186:74 8.52 
12 *186:74 *1563:CLK 19.365 
13 *186:74 *1579:CLK 3.6 
14 *186:72 *1568:CLK 7.155 
15 *186:70 *1600:A 11.985 
*END

*D_NET *187 0.0369172
*CONN
*I *1519:A1 I *D sky130_fd_sc_hd__a21oi_1
*I *1397:A I *D sky130_fd_sc_hd__nor2_2
*I *1403:B1 I *D sky130_fd_sc_hd__a21oi_1
*I *1516:B I *D sky130_fd_sc_hd__and3b_1
*I *1404:A2 I *D sky130_fd_sc_hd__a21oi_1
*I *1520:C I *D sky130_fd_sc_hd__or3_1
*I *1392:C I *D sky130_fd_sc_hd__and3_2
*I *1401:A2 I *D sky130_fd_sc_hd__a21oi_1
*I *1588:Q O *D sky130_fd_sc_hd__dfrtp_4
*CAP
1 *1519:A1 0.00029059
2 *1397:A 0.000232972
3 *1403:B1 0.000169658
4 *1516:B 0.000241309
5 *1404:A2 8.70642e-05
6 *1520:C 0
7 *1392:C 0.00107529
8 *1401:A2 0
9 *1588:Q 0.00102052
10 *187:138 0.00257745
11 *187:117 0.00273986
12 *187:69 0.00148489
13 *187:61 0.00105486
14 *187:50 0.00191255
15 *187:22 0.00214084
16 *187:14 0.00208202
17 *1392:C *1520:A 7.9642e-06
18 *1392:C *209:60 0
19 *1397:A *1425:C 1.91597e-05
20 *1397:A *1440:A 0.000155601
21 *1397:A *1458:A 0.000121019
22 *1403:B1 *212:28 0.000279826
23 *1403:B1 *212:30 8.52883e-05
24 *1404:A2 *1404:A1 0.000220908
25 *187:14 *1403:A1 4.77719e-05
26 *187:14 *1492:A 0.000197833
27 *187:14 *191:84 8.72898e-05
28 *187:14 *212:38 2.15168e-05
29 *187:22 *1405:A 0.000142343
30 *187:50 *1401:A1 0.000131168
31 *187:50 *1497:B 5.02217e-05
32 *187:50 *201:36 0.000341286
33 *187:50 *207:20 0.000449585
34 *187:50 *213:61 0.000334305
35 *187:61 *1404:A1 0.000118081
36 *187:61 *1499:A 0.000267522
37 *187:61 *227:59 0.000701127
38 *187:69 *1441:A 0.000219897
39 *187:69 *204:10 8.90672e-05
40 *187:69 *210:40 4.17004e-05
41 *187:69 *218:22 0.000188886
42 *187:69 *223:35 0.000580912
43 *187:117 *1403:A1 0.000519884
44 *187:117 *191:72 0
45 *187:138 *1487:D 0.000425463
46 *187:138 *1558:A 0.000136302
47 *187:138 *212:28 0.000627522
48 *1397:B *1397:A 0.000447471
49 *1404:B1 *1404:A2 0.000156758
50 *1404:B1 *187:61 0.00121774
51 *1423:B *187:22 4.66108e-05
52 *1441:B *1392:C 0.000177407
53 *1448:A *187:22 0.00011272
54 *1448:B *187:22 0.000796331
55 *1454:B *1516:B 1.33285e-05
56 *1454:B *187:22 0.00022707
57 *1458:C *1397:A 6.31625e-05
58 *1476:B1 *1516:B 0.000267518
59 *1492:B *187:14 0.000117762
60 *1498:A1 *187:22 0.00016751
61 *1505:A1 *187:50 1.84845e-05
62 *1507:B *187:14 0.000102817
63 *1508:C *187:14 0.000180287
64 *1513:A1 *1392:C 0.000253063
65 *1517:C1 *187:50 0.000165966
66 *1519:A2 *1519:A1 0.00013471
67 *1567:CLK *1392:C 0.000221857
68 *1567:RESET_B *1392:C 5.45745e-05
69 *1567:RESET_B *187:69 0.000268138
70 *1569:D *187:50 0.000152407
71 *1571:RESET_B *187:50 0.00065141
72 *1579:D *1519:A1 0.000194701
73 *1579:D *187:138 0.000332661
74 *1588:RESET_B *187:14 7.26734e-05
75 *47:20 *187:69 0.000155701
76 *51:14 *187:138 5.69898e-06
77 *87:34 *1403:B1 0.000593126
78 *87:34 *187:138 0.00155051
79 *88:12 *1397:A 3.47556e-05
80 *88:34 *187:22 0.000500465
81 *92:16 *187:117 0.00012081
82 *95:70 *187:50 0.000116158
83 *97:44 *187:22 0.000159294
84 *105:12 *187:22 2.82887e-05
85 *131:16 *187:22 1.56428e-05
86 *133:30 *187:50 0.00024207
87 *134:8 *1397:A 0.000444106
88 *146:12 *187:50 2.61707e-05
89 *147:99 *187:50 0.000530862
90 *165:16 *1404:A2 6.60042e-05
91 *165:16 *187:61 0.000335938
92 *165:39 *1519:A1 0.000105447
93 *170:14 *187:14 0.000133453
94 *175:18 *187:50 0
95 *179:148 *187:138 0.000184686
96 *185:20 *187:22 7.90755e-05
97 *186:10 *1519:A1 7.59112e-05
98 *186:10 *187:138 0.0006708
99 *186:21 *1519:A1 0.00020332
100 *186:70 *187:138 0.000204473
*RES
1 *1588:Q *187:14 21.215 
2 *187:14 *187:22 20.23 
3 *187:22 *187:50 33.5096 
4 *187:50 *1401:A2 1.6 
5 *187:50 *187:61 15.405 
6 *187:61 *187:69 16.315 
7 *187:69 *1392:C 19.94 
8 *187:69 *1520:C 1.6 
9 *187:61 *1404:A2 4.48 
10 *187:22 *1516:B 4.825 
11 *187:14 *187:117 11.59 
12 *187:117 *1403:B1 7.225 
13 *187:117 *187:138 46.28 
14 *187:138 *1397:A 11.415 
15 *187:138 *1519:A1 11.61 
*END

*D_NET *188 0.0343234
*CONN
*I *1392:B I *D sky130_fd_sc_hd__and3_2
*I *1401:B1 I *D sky130_fd_sc_hd__a21oi_1
*I *1522:B I *D sky130_fd_sc_hd__or3_1
*I *1395:B I *D sky130_fd_sc_hd__nor2_2
*I *1524:A1 I *D sky130_fd_sc_hd__a21boi_2
*I *1516:A_N I *D sky130_fd_sc_hd__and3b_1
*I *1517:A2 I *D sky130_fd_sc_hd__a2111o_1
*I *1589:Q O *D sky130_fd_sc_hd__dfrtp_4
*CAP
1 *1392:B 0
2 *1401:B1 2.46218e-05
3 *1522:B 0.000231677
4 *1395:B 0.0002278
5 *1524:A1 0.000925937
6 *1516:A_N 0.00018111
7 *1517:A2 0.000487511
8 *1589:Q 0
9 *188:160 0.00276342
10 *188:113 0.00203095
11 *188:76 0.00351085
12 *188:45 0.0014849
13 *188:32 0.0015205
14 *188:20 0.00110777
15 *188:4 0.00310393
16 *1401:B1 *1499:A 4.66108e-05
17 *1517:A2 *1517:A1 0.00015639
18 *1517:A2 *189:42 7.3151e-05
19 *1517:A2 *196:37 0.000158072
20 *1524:A1 *199:16 5.06989e-05
21 *188:32 *1499:A 3.98221e-05
22 *188:32 *1503:A 2.31526e-05
23 *188:32 *214:16 0.000419758
24 *188:76 *221:84 1.37328e-05
25 *188:76 *221:98 5.83121e-06
26 *188:113 *1450:B1 5.04265e-05
27 *188:113 *191:72 0
28 *188:113 *212:28 0.000374933
29 *188:113 *221:84 0.000452519
30 *188:113 *221:98 6.03947e-06
31 *188:113 *225:75 0.000153816
32 *188:160 *1497:B 3.83598e-05
33 *188:160 *1515:A 0.000234181
34 *1397:B *1395:B 7.01575e-05
35 *1398:A2_N *1517:A2 3.18155e-05
36 *1433:B *188:76 0
37 *1442:C *188:113 0.000192094
38 *1443:A *188:113 0.000154981
39 *1445:A1 *188:113 6.98693e-05
40 *1445:C1 *188:113 0.000414905
41 *1449:A *188:76 4.67356e-05
42 *1454:B *1516:A_N 0.000334275
43 *1498:A1 *188:76 0.000292626
44 *1498:B1 *188:20 1.05476e-05
45 *1500:B *188:20 2.75092e-05
46 *1502:A *1395:B 0.000143701
47 *1504:B *188:113 9.54399e-05
48 *1513:A1 *188:160 0.00129135
49 *1517:C1 *1517:A2 7.76294e-05
50 *1519:B1 *1395:B 4.7878e-05
51 *1524:B1_N *1524:A1 0.000468085
52 *1571:D *188:20 2.97522e-05
53 *1581:D *188:32 0.000386213
54 *1589:RESET_B *188:20 8.23457e-05
55 *1591:RESET_B *188:20 8.34031e-05
56 *47:12 *188:160 0
57 *47:174 *188:160 0
58 *48:12 *188:32 0.00088426
59 *48:12 *188:45 0.000162386
60 *88:34 *1517:A2 0.000739329
61 *89:14 *188:160 0.000638446
62 *93:51 *188:160 8.99337e-05
63 *95:82 *188:45 0.000309779
64 *95:82 *188:76 0.00147563
65 *95:123 *188:160 0.000533509
66 *97:8 *188:32 0.00016787
67 *97:44 *188:32 7.30547e-05
68 *97:44 *188:45 0.000806827
69 *97:44 *188:76 0.00146967
70 *102:12 *1395:B 0.000251219
71 *117:8 *1524:A1 0.000256717
72 *122:32 *188:113 1.56615e-05
73 *133:30 *188:20 0
74 *133:30 *188:160 9.16271e-05
75 *139:33 *1522:B 0.000166249
76 *139:33 *188:113 0.000108031
77 *147:16 *188:32 8.15917e-05
78 *147:22 *188:32 0.00013521
79 *151:18 *1524:A1 4.82863e-05
80 *151:18 *188:113 0.00040911
81 *163:16 *188:20 0.000303873
82 *170:47 *188:160 0.000124007
83 *175:18 *188:20 0.000241518
84 *175:18 *188:160 0.000286846
85 *180:143 *188:76 0
86 *183:64 *188:20 0.000109198
87 *185:8 *1395:B 0
88 *185:8 *188:113 9.37731e-05
*RES
1 *1589:Q *188:4 1.6 
2 *188:4 *188:20 15.95 
3 *188:20 *188:32 18.83 
4 *188:32 *1517:A2 13.38 
5 *188:32 *188:45 9.795 
6 *188:45 *1516:A_N 6.81 
7 *188:45 *188:76 22.8825 
8 *188:76 *1524:A1 17.605 
9 *188:76 *188:113 38.43 
10 *188:113 *1395:B 11.315 
11 *188:113 *1522:B 4.465 
12 *188:20 *1401:B1 2.05 
13 *188:4 *188:160 49.55 
14 *188:160 *1392:B 1.6 
*END

*D_NET *189 0.0378867
*CONN
*I *1393:A I *D sky130_fd_sc_hd__nand2_1
*I *1515:B I *D sky130_fd_sc_hd__nor2_2
*I *1520:B I *D sky130_fd_sc_hd__or3_1
*I *1396:A I *D sky130_fd_sc_hd__nand2_2
*I *1398:B2 I *D sky130_fd_sc_hd__o2bb2a_1
*I *1517:A1 I *D sky130_fd_sc_hd__a2111o_1
*I *1590:Q O *D sky130_fd_sc_hd__dfrtp_4
*CAP
1 *1393:A 3.55506e-05
2 *1515:B 0
3 *1520:B 0.000344422
4 *1396:A 0.00060044
5 *1398:B2 0.000772999
6 *1517:A1 0.000116962
7 *1590:Q 0.00145148
8 *189:80 0.00144675
9 *189:72 0.00115655
10 *189:53 0.00182552
11 *189:42 0.00131654
12 *189:32 0.00385665
13 *189:28 0.00447087
14 *1396:A *210:40 0.00114032
15 *1398:B2 *1398:A1_N 0.000401339
16 *189:28 *200:100 8.85876e-05
17 *189:28 *201:61 0
18 *189:28 *201:72 0
19 *189:28 *202:49 0.00102396
20 *189:28 *202:66 0.000102962
21 *189:28 *206:10 0.000114492
22 *189:28 *221:84 0.000624103
23 *189:32 *194:14 0.000591089
24 *189:42 *1592:A 8.33066e-06
25 *189:42 *207:14 2.05641e-05
26 *189:42 *226:12 0.000138127
27 *189:72 *215:14 0.000378332
28 *189:80 *210:40 0.000359369
29 *189:80 *215:14 0.00173716
30 *1393:B *189:42 0.000230032
31 *1432:A *189:28 0.000219495
32 *1472:A *189:28 0.000116165
33 *1510:B *1398:B2 0.000245886
34 *1517:A2 *1517:A1 0.00015639
35 *1517:A2 *189:42 7.3151e-05
36 *1530:A *189:28 4.77757e-05
37 *1533:A *1398:B2 0.000201107
38 *1533:A *189:42 0.000247807
39 *1533:A *189:53 0.00145591
40 *1564:RESET_B *189:28 0.000114958
41 *1567:RESET_B *1398:B2 9.44334e-05
42 *1570:RESET_B *1398:B2 0.000135877
43 *1570:RESET_B *189:42 0.000124582
44 *1570:RESET_B *189:53 0.000350869
45 *1574:D *189:28 0.00024508
46 *1588:D *189:42 0.000356549
47 *1588:RESET_B *189:42 0.000781721
48 *1590:RESET_B *189:28 0.000156758
49 *47:20 *1520:B 0.000490644
50 *48:18 *189:72 8.21791e-05
51 *48:18 *189:80 0.00173218
52 *56:26 *189:28 0.000243653
53 *73:16 *1396:A 0.000176816
54 *84:26 *1398:B2 4.99999e-05
55 *85:10 *189:32 4.30606e-05
56 *85:10 *189:42 2.65814e-06
57 *87:8 *1396:A 4.77769e-05
58 *92:16 *189:32 0.000709423
59 *100:16 *189:32 0.000919903
60 *115:8 *189:28 0.00010072
61 *119:10 *1396:A 0.00132808
62 *119:10 *189:80 0.000367205
63 *129:66 *189:28 1.94684e-05
64 *170:14 *1398:B2 0.000511103
65 *170:14 *189:53 0.000892353
66 *179:28 *189:42 9.39826e-05
67 *180:143 *189:32 3.59784e-05
68 *181:24 *189:28 0.000561536
*RES
1 *1590:Q *189:28 48.385 
2 *189:28 *189:32 36.345 
3 *189:32 *189:42 23.515 
4 *189:42 *1517:A1 3.085 
5 *189:42 *189:53 18.935 
6 *189:53 *1398:B2 19.92 
7 *189:53 *189:72 12.455 
8 *189:72 *189:80 23.375 
9 *189:80 *1396:A 22.74 
10 *189:80 *1520:B 8.19 
11 *189:72 *1515:B 1.6 
12 *189:32 *1393:A 2.215 
*END

*D_NET *190 0.0271789
*CONN
*I *1520:A I *D sky130_fd_sc_hd__or3_1
*I *1522:A I *D sky130_fd_sc_hd__or3_1
*I *1395:A I *D sky130_fd_sc_hd__nor2_2
*I *1394:A I *D sky130_fd_sc_hd__xnor2_1
*I *1517:D1 I *D sky130_fd_sc_hd__a2111o_1
*I *1515:A I *D sky130_fd_sc_hd__nor2_2
*I *1591:Q O *D sky130_fd_sc_hd__dfrtp_4
*CAP
1 *1520:A 0.000495272
2 *1522:A 3.36581e-05
3 *1395:A 0.000344091
4 *1394:A 0
5 *1517:D1 0.00076656
6 *1515:A 0.000201355
7 *1591:Q 0.000584486
8 *190:69 0.00283055
9 *190:35 0.000827486
10 *190:31 0.00305992
11 *190:18 0.00186734
12 *190:14 0.00219955
13 *1395:A *1425:B 0.0001113
14 *1515:A *215:14 0.000567038
15 *1515:A *220:10 0.000217988
16 *1517:D1 *1405:A 0.000532633
17 *1517:D1 *1454:A 2.15594e-05
18 *1517:D1 *226:12 0.000263491
19 *1517:D1 *226:31 0.000208669
20 *1520:A *209:60 0.000328534
21 *190:14 *205:30 9.0501e-05
22 *190:31 *1499:A 0.00103943
23 *190:31 *220:10 0.00127307
24 *190:35 *226:31 5.54803e-05
25 *190:69 *1487:A 0
26 *190:69 *1487:C 2.56866e-05
27 *190:69 *1487:D 6.95739e-05
28 *190:69 *213:35 0.000108242
29 *190:69 *227:26 1.47807e-05
30 *1392:C *1520:A 7.9642e-06
31 *1394:B *190:35 0.000161467
32 *1399:A *190:69 0.000215606
33 *1399:B *190:69 0.000114649
34 *1400:A *190:69 1.78037e-05
35 *1404:B1 *190:31 0.000137048
36 *1404:B1 *190:69 0.000125686
37 *1441:B *1520:A 2.36679e-05
38 *1443:A *1395:A 0.000199967
39 *1443:A *190:69 2.32724e-05
40 *1452:C *190:14 0.000111604
41 *1470:A *190:69 0
42 *1491:A *1395:A 0.000359203
43 *1498:A1 *1517:D1 0.000128214
44 *1517:C1 *1517:D1 0.000630448
45 *1523:A *1395:A 0
46 *1523:A *190:69 0
47 *1561:CLK *190:69 0.000508919
48 *1563:RESET_B *190:69 0.000868515
49 *1566:RESET_B *1520:A 0
50 *1567:D *190:69 3.97211e-05
51 *1567:RESET_B *1520:A 0.000197822
52 *1588:RESET_B *1517:D1 0.000848979
53 *1588:RESET_B *190:35 0.000296185
54 *1589:RESET_B *190:18 9.5335e-05
55 *1591:D *190:31 0.000180052
56 *1591:RESET_B *1520:A 0.000111099
57 *30:8 *1395:A 1.91597e-05
58 *57:20 *190:31 0.000131878
59 *57:20 *190:35 4.66108e-05
60 *57:20 *190:69 2.03245e-05
61 *66:12 *190:14 1.03572e-05
62 *76:28 *190:31 0.000113958
63 *77:14 *190:14 0.000372518
64 *77:14 *190:18 0.00050552
65 *88:34 *1517:D1 0.000489966
66 *93:51 *1515:A 0.000139349
67 *93:51 *190:31 0.000220999
68 *132:8 *1395:A 0.000230649
69 *141:10 *190:69 0
70 *175:18 *1515:A 0.000154242
71 *176:47 *190:69 0.000340941
72 *179:28 *190:69 8.53113e-06
73 *179:132 *1395:A 7.9642e-06
74 *183:6 *190:18 0.000147727
75 *183:96 *1515:A 5.20249e-05
76 *183:96 *190:31 0.000126037
77 *185:41 *190:69 0.00026449
78 *188:160 *1515:A 0.000234181
*RES
1 *1591:Q *190:14 13.745 
2 *190:14 *190:18 15.56 
3 *190:18 *1515:A 11.535 
4 *190:18 *190:31 19.74 
5 *190:31 *190:35 4.865 
6 *190:35 *1517:D1 26.09 
7 *190:35 *1394:A 1.6 
8 *190:31 *190:69 46.4125 
9 *190:69 *1395:A 12.3825 
10 *190:69 *1522:A 4.2825 
11 *190:14 *1520:A 18.825 
*END

*D_NET *191 0.0500691
*CONN
*I *1525:A I *D sky130_fd_sc_hd__buf_4
*I *1559:A I *D sky130_fd_sc_hd__inv_2
*I *1536:A I *D sky130_fd_sc_hd__clkbuf_8
*I *1547:A I *D sky130_fd_sc_hd__clkbuf_8
*I *1558:A I *D sky130_fd_sc_hd__inv_2
*I *1602:X O *D sky130_fd_sc_hd__clkbuf_4
*CAP
1 *1525:A 3.67034e-05
2 *1559:A 0.000204597
3 *1536:A 0.00017956
4 *1547:A 0.000714823
5 *1558:A 0.00598929
6 *1602:X 0.000490709
7 *191:86 0.00210012
8 *191:84 0.00363865
9 *191:72 0.00308938
10 *191:43 0.00445266
11 *191:8 0.00867865
12 *1558:A *1421:B 0
13 *1558:A *1509:A 0.000237635
14 *1558:A *194:22 0.000313421
15 *1558:A *200:100 0.000168371
16 *1558:A *211:18 0.000127799
17 *191:8 *1421:A 2.97561e-05
18 *191:8 *1421:B 0
19 *191:8 *216:18 0
20 *191:43 *1461:A 6.1357e-05
21 *191:43 *206:10 0.000235568
22 *191:72 *1408:C 0.000269299
23 *191:72 *1450:B1 0
24 *191:72 *213:35 9.15237e-06
25 *1414:B1 *191:72 0
26 *1423:A *191:8 4.05483e-05
27 *1432:A *1558:A 0.000229355
28 *1440:B *1558:A 0.000127799
29 *1448:A *191:84 0.000118714
30 *1448:B *191:84 0.000141811
31 *1448:C *1525:A 0.000196048
32 *1454:B *191:72 0.00168806
33 *1454:B *191:84 0.000215065
34 *1461:B *191:43 4.82863e-05
35 *1463:A *191:84 0
36 *1474:D *1547:A 2.3091e-05
37 *1474:D *191:43 1.1392e-05
38 *1474:D *191:72 3.62197e-05
39 *1479:B *1559:A 0.000196641
40 *1485:B1 *191:86 0
41 *1485:C1 *1559:A 1.03592e-05
42 *1485:C1 *191:84 1.197e-05
43 *1485:C1 *191:86 0.000482341
44 *1491:A *1558:A 0
45 *1492:B *191:84 7.07047e-06
46 *1495:A *1558:A 0.00334076
47 *1501:B *1558:A 0.000116752
48 *1505:C1 *1558:A 0.000115273
49 *1510:B *191:86 0
50 *1519:A2 *191:72 0.000255239
51 *1524:A2 *191:72 0.000267105
52 *1553:A *1536:A 0.000384844
53 *1553:A *191:86 0
54 *1562:RESET_B *1558:A 0.000369014
55 *1566:RESET_B *1558:A 0
56 *1568:D *1558:A 0.000300869
57 *1570:RESET_B *191:86 0.000563939
58 *1575:CLK *1558:A 8.10457e-05
59 *1575:CLK *191:8 2.07184e-05
60 *1575:CLK *191:43 4.66108e-05
61 *1579:D *1558:A 0.000716936
62 *1588:CLK *191:84 3.56987e-05
63 *1588:D *191:84 1.34618e-05
64 *1588:RESET_B *191:84 9.76407e-06
65 *29:8 *191:86 0.00412244
66 *34:24 *191:72 0.000154427
67 *43:26 *1558:A 0
68 *51:14 *1558:A 0.000109387
69 *67:12 *1558:A 0.000252421
70 *68:12 *191:86 0.000775719
71 *72:10 *191:8 0
72 *79:12 *1559:A 0.000254204
73 *79:12 *191:86 0.000296722
74 *92:16 *191:72 0
75 *92:16 *191:84 0
76 *116:28 *191:84 0.000103671
77 *129:103 *191:43 0.000985325
78 *131:16 *191:84 7.88068e-05
79 *131:16 *191:86 7.8494e-06
80 *146:12 *191:72 0
81 *156:25 *1525:A 0.000196048
82 *165:39 *1558:A 0.000446012
83 *181:103 *1559:A 0.000194694
84 *184:108 *1558:A 0.000102833
85 *185:35 *191:84 2.99981e-06
86 *186:10 *1558:A 0.000131056
87 *186:72 *1558:A 0.000183138
88 *186:74 *1558:A 0.000197386
89 *187:14 *191:84 8.72898e-05
90 *187:117 *191:72 0
91 *187:138 *1558:A 0.000136302
92 *188:113 *191:72 0
*RES
1 *1602:X *191:8 11.865 
2 *191:8 *1558:A 24.6132 
3 *191:8 *191:43 33.275 
4 *191:43 *1547:A 9.31 
5 *191:43 *191:72 39.325 
6 *191:72 *191:84 23.1175 
7 *191:84 *191:86 54.5475 
8 *191:86 *1536:A 7.155 
9 *191:84 *1559:A 9.8025 
10 *191:72 *1525:A 5.43 
*END

*D_NET *192 0.00116762
*CONN
*I *1514:A1 I *D sky130_fd_sc_hd__o211a_1
*I *1601:X O *D sky130_fd_sc_hd__dlygate4sd3_1
*CAP
1 *1514:A1 0.00027469
2 *1601:X 0.00027469
3 *1514:A1 *1514:A2 0.000116853
4 *1514:A1 *217:12 4.82919e-05
5 *1514:A1 *217:14 0.000313852
6 *1490:B *1514:A1 0.000139245
7 *1490:C *1514:A1 0
*RES
1 *1601:X *1514:A1 12.045 
*END

*D_NET *193 0.0147005
*CONN
*I *1603:A I *D sky130_fd_sc_hd__buf_2
*I *1592:X O *D sky130_fd_sc_hd__buf_1
*CAP
1 *1603:A 0.000996208
2 *1592:X 0.00108094
3 *193:28 0.00285831
4 *193:14 0.00294305
5 *193:14 *1497:B 0
6 *193:14 *1592:A 0.000190776
7 *193:28 *1392:A 0.000112123
8 *193:28 *205:30 0.000965474
9 seg[1] *1603:A 9.82856e-06
10 *1490:C *193:28 4.11281e-05
11 *1498:C1 *193:14 0.000306849
12 *1521:A *193:28 0.00026617
13 *1562:D *193:28 0.000638951
14 *1569:D *193:14 0.000103303
15 *46:16 *193:28 0.00236533
16 *95:16 *193:14 1.64067e-05
17 *105:52 *193:14 0
18 *122:8 *193:28 0.000966089
19 *132:16 *1603:A 0
20 *170:45 *193:28 0.000839566
*RES
1 *1592:X *193:14 22.25 
2 *193:14 *193:28 49.18 
3 *193:28 *1603:A 21.26 
*END

*D_NET *194 0.0163323
*CONN
*I *1604:A I *D sky130_fd_sc_hd__buf_2
*I *1518:Y O *D sky130_fd_sc_hd__nor2_1
*CAP
1 *1604:A 0.00109929
2 *1518:Y 0.00106209
3 *194:22 0.00204815
4 *194:14 0.00201095
5 *194:14 *213:35 6.89789e-05
6 *194:14 *225:14 0.00180996
7 *1501:B *194:22 0.000152155
8 *1521:A *194:22 0.000563454
9 *1558:A *194:22 0.000313421
10 *1562:CLK *1604:A 3.1835e-05
11 *1562:RESET_B *194:22 0.00133822
12 *1568:D *194:14 2.49909e-05
13 *1568:D *194:22 0.00213278
14 *23:18 *194:14 0
15 *85:10 *194:14 2.66148e-05
16 *92:16 *194:14 0.000126494
17 *100:16 *194:14 0.000510737
18 *115:30 *194:22 9.12977e-05
19 *176:47 *194:14 0.000581516
20 *184:8 *194:22 0.000376905
21 *184:10 *194:22 0.000320348
22 *184:12 *194:22 0.000151927
23 *184:14 *194:22 4.20983e-05
24 *184:108 *194:22 0.00085703
25 *189:32 *194:14 0.000591089
*RES
1 *1518:Y *194:14 37.285 
2 *194:14 *194:22 39.89 
3 *194:22 *1604:A 13.36 
*END

*D_NET *195 0.0134305
*CONN
*I *1605:A I *D sky130_fd_sc_hd__buf_2
*I *1519:Y O *D sky130_fd_sc_hd__a21oi_1
*CAP
1 *1605:A 0.000151276
2 *1519:Y 0.000669404
3 *195:18 0.00107747
4 *195:16 0.0015956
5 *195:16 *201:72 0.000154399
6 *1505:B1 *195:16 0.000377111
7 *1540:A *195:16 4.77807e-05
8 *56:26 *195:16 0.00015582
9 *61:8 *195:16 0.00052197
10 *61:10 *195:18 8.27207e-05
11 *62:10 *195:18 0.00423719
12 *99:20 *195:16 0.000292018
13 *132:16 *195:18 0.00406774
*RES
1 *1519:Y *195:16 20.74 
2 *195:16 *195:18 48.81 
3 *195:18 *1605:A 5.43 
*END

*D_NET *196 0.0158328
*CONN
*I *1606:A I *D sky130_fd_sc_hd__buf_2
*I *1592:A I *D sky130_fd_sc_hd__buf_1
*I *1517:X O *D sky130_fd_sc_hd__a2111o_1
*CAP
1 *1606:A 0.00106881
2 *1592:A 0.000912999
3 *1517:X 0
4 *196:37 0.00382103
5 *196:4 0.00366522
6 *1592:A *1398:A1_N 0.000808927
7 *1606:A *210:14 0.00022235
8 *1606:A *211:6 0.000707062
9 *1606:A *211:87 0.000153816
10 *196:37 *1451:A 8.33066e-06
11 *196:37 *1468:A 7.27003e-05
12 *196:37 *205:61 6.14194e-05
13 *196:37 *216:41 0.000243629
14 *196:37 *226:31 0.000228992
15 *1411:D *1606:A 5.41389e-05
16 *1517:A2 *196:37 0.000158072
17 *1533:A *1592:A 0.000450909
18 *1569:D *196:37 0.00076668
19 *1569:RESET_B *196:37 0.000257075
20 *1570:RESET_B *1592:A 0.000409068
21 *1577:RESET_B *196:37 4.24292e-06
22 *1588:D *1592:A 0.000440569
23 *42:12 *196:37 6.10014e-05
24 *66:12 *196:37 9.6405e-05
25 *70:10 *1592:A 0
26 *70:10 *196:37 0.000133595
27 *76:28 *196:37 0.000623742
28 *120:30 *1606:A 1.77665e-05
29 *142:28 *196:37 0.000185166
30 *189:42 *1592:A 8.33066e-06
31 *193:14 *1592:A 0.000190776
*RES
1 *1517:X *196:4 1.6 
2 *196:4 *1592:A 28.835 
3 *196:4 *196:37 49.215 
4 *196:37 *1606:A 21.765 
*END

*D_NET *197 0.0101952
*CONN
*I *1607:A I *D sky130_fd_sc_hd__buf_2
*I *1521:X O *D sky130_fd_sc_hd__buf_1
*CAP
1 *1607:A 0.000849146
2 *1521:X 0.000886682
3 *197:8 0.00173583
4 *1607:A *221:12 0
5 *1607:A *221:45 1.23518e-05
6 *1551:A *1607:A 0.000879069
7 *1585:D *197:8 0.000412894
8 *35:20 *1607:A 0.00332339
9 *57:12 *1607:A 0.00159683
10 *77:14 *197:8 0.000183815
11 *99:12 *1607:A 7.10462e-05
12 *181:51 *1607:A 5.97443e-05
13 *181:57 *1607:A 0.000184395
*RES
1 *1521:X *197:8 14.055 
2 *197:8 *1607:A 41.955 
*END

*D_NET *198 0.00155947
*CONN
*I *1608:A I *D sky130_fd_sc_hd__buf_2
*I *1523:X O *D sky130_fd_sc_hd__clkbuf_1
*CAP
1 *1608:A 0.000200948
2 *1523:X 0.000200948
3 *26:20 *1608:A 0.000656155
4 *35:16 *1608:A 0.000501421
5 *62:10 *1608:A 0
*RES
1 *1523:X *1608:A 14.955 
*END

*D_NET *199 0.014252
*CONN
*I *1609:A I *D sky130_fd_sc_hd__buf_2
*I *231:DIODE I *D sky130_fd_sc_hd__diode_2
*I *1524:Y O *D sky130_fd_sc_hd__a21boi_2
*CAP
1 *1609:A 0.000128499
2 *231:DIODE 0
3 *1524:Y 0.00127188
4 *199:36 0.0013088
5 *199:28 0.00292961
6 *199:16 0.00302119
7 *199:28 *1496:A 0.00157437
8 *199:28 *216:18 0.000712973
9 *199:36 *1421:A 0.000238137
10 *199:36 *1421:B 4.82863e-05
11 *199:36 *216:18 0.000546468
12 *1457:A2 *199:36 2.51225e-05
13 *1504:A *199:28 4.66108e-05
14 *1504:B *199:28 2.49909e-05
15 *1524:A1 *199:16 5.06989e-05
16 *1537:A *199:36 8.52845e-05
17 *1570:RESET_B *199:28 0.00020279
18 *62:8 *199:36 0.000222065
19 *81:12 *199:16 0.00114568
20 *185:16 *199:28 0.000668549
*RES
1 *1524:Y *199:16 30.3875 
2 *199:16 *199:28 37.62 
3 *199:28 *199:36 26.3575 
4 *199:36 *231:DIODE 1.6 
5 *199:36 *1609:A 3.61 
*END

*D_NET *200 0.0382906
*CONN
*I *1422:B I *D sky130_fd_sc_hd__or2_1
*I *1425:C I *D sky130_fd_sc_hd__nand3_1
*I *1421:B I *D sky130_fd_sc_hd__nand2_1
*I *1420:A I *D sky130_fd_sc_hd__nor2_1
*I *1426:A2 I *D sky130_fd_sc_hd__a21o_1
*I *1407:D I *D sky130_fd_sc_hd__and4_2
*I *1429:A3 I *D sky130_fd_sc_hd__a31o_1
*I *1560:Q O *D sky130_fd_sc_hd__dfrtp_4
*CAP
1 *1422:B 5.29104e-05
2 *1425:C 0.00146123
3 *1421:B 0.000590926
4 *1420:A 0
5 *1426:A2 0.000147381
6 *1407:D 0.000547381
7 *1429:A3 0
8 *1560:Q 0
9 *200:100 0.00274771
10 *200:90 0.0017783
11 *200:61 0.002388
12 *200:34 0.00247853
13 *200:10 0.00195285
14 *200:4 0.00237845
15 *1407:D *1407:C 0.00121356
16 *1421:B *1421:A 0.000378034
17 *1422:B *1422:A 0.000110147
18 *1425:C *1408:C 0.00111798
19 *1425:C *1425:B 0.00242591
20 *1425:C *1440:A 0.00144231
21 *1426:A2 *221:12 0.000113222
22 *200:10 *1406:A2 3.1889e-05
23 *200:10 *1406:B1 0.000107546
24 *200:10 *1486:A2 2.02052e-05
25 *200:10 *208:38 0.000464188
26 *200:10 *210:40 0.000520728
27 *200:61 *1426:A1 0
28 *200:61 *211:87 0
29 *200:61 *221:12 0.00227918
30 *200:90 *202:49 0.000155389
31 *200:90 *221:8 0.000159156
32 *200:90 *221:45 0.000494268
33 *200:90 *221:84 0.000582658
34 *200:100 *1422:A 0.000375343
35 *200:100 *211:18 0.000118081
36 *1397:A *1425:C 1.91597e-05
37 *1411:D *200:90 0.000264133
38 *1420:B *200:61 8.23457e-05
39 *1440:B *1421:B 1.0397e-05
40 *1440:B *1425:C 1.84465e-05
41 *1440:B *200:100 0.00151103
42 *1459:C *1407:D 8.35068e-05
43 *1505:B2 *1421:B 0.000175474
44 *1530:A *200:100 0.000700255
45 *1551:A *200:90 0.000153812
46 *1558:A *1421:B 0
47 *1558:A *200:100 0.000168371
48 *1560:D *200:34 0.000234763
49 *1560:D *200:61 1.91597e-05
50 *1560:RESET_B *200:10 0.000274061
51 *1560:RESET_B *200:34 0.00014845
52 *1575:CLK *1421:B 0
53 *1579:RESET_B *200:61 0
54 *1579:RESET_B *200:90 0
55 *21:6 *200:10 1.70272e-05
56 *21:6 *200:34 8.81876e-05
57 *47:12 *1407:D 5.88572e-05
58 *47:174 *1407:D 1.14169e-05
59 *50:12 *1425:C 5.00903e-05
60 *77:14 *200:61 0.000701865
61 *77:14 *200:90 8.73389e-06
62 *88:12 *1425:C 0.000340189
63 *93:51 *1407:D 0.000527957
64 *95:123 *1407:D 0
65 *129:64 *200:61 2.76356e-05
66 *129:64 *200:90 0.00104199
67 *129:66 *200:90 0.000644813
68 *134:8 *1425:C 0.000705944
69 *165:39 *1421:B 0.000702062
70 *165:39 *200:100 0.000559931
71 *180:14 *1407:D 2.34559e-05
72 *180:14 *200:10 0.000104458
73 *181:57 *200:90 1.71689e-05
74 *186:10 *1425:C 2.50751e-05
75 *189:28 *200:100 8.85876e-05
76 *191:8 *1421:B 0
77 *199:36 *1421:B 4.82863e-05
*RES
1 *1560:Q *200:4 1.6 
2 *200:4 *200:10 27.275 
3 *200:10 *1429:A3 3.6 
4 *200:10 *1407:D 18.78 
5 *200:4 *200:34 14.195 
6 *200:34 *1426:A2 6.12 
7 *200:34 *200:61 38.175 
8 *200:61 *1420:A 1.6 
9 *200:61 *200:90 36.77 
10 *200:90 *200:100 26.1725 
11 *200:100 *1421:B 18.5625 
12 *200:100 *1425:C 48.2125 
13 *200:90 *1422:B 2.74 
*END

*D_NET *201 0.0403402
*CONN
*I *1454:A I *D sky130_fd_sc_hd__nand2_1
*I *1453:A I *D sky130_fd_sc_hd__or2_1
*I *1457:A1 I *D sky130_fd_sc_hd__a21oi_2
*I *1474:B I *D sky130_fd_sc_hd__and4_1
*I *1458:B I *D sky130_fd_sc_hd__and3_2
*I *1411:B I *D sky130_fd_sc_hd__or4_2
*I *1570:Q O *D sky130_fd_sc_hd__dfrtp_4
*CAP
1 *1454:A 0.000476732
2 *1453:A 8.35267e-05
3 *1457:A1 0.000703178
4 *1474:B 0.00263705
5 *1458:B 5.81959e-05
6 *1411:B 0.000341218
7 *1570:Q 0.00113172
8 *201:72 0.00373794
9 *201:61 0.00164318
10 *201:46 0.00200221
11 *201:38 0.00119676
12 *201:36 0.00242165
13 *201:14 0.00339059
14 *1411:B *1411:C 0.000101392
15 *1411:B *202:20 0.000266529
16 *1454:A *1405:A 2.77829e-05
17 *1454:A *1503:A 0.000711623
18 *1454:A *215:14 0.00011686
19 *1454:A *217:29 0.000295813
20 *1457:A1 *1457:B1 0.000158536
21 *201:14 *1406:A1 2.76356e-05
22 *201:14 *1406:A2 1.82682e-05
23 *201:14 *215:14 0.000693179
24 *201:14 *217:29 0.000301127
25 *201:36 *1398:A1_N 0.00022218
26 *201:36 *204:10 7.9642e-06
27 *201:36 *204:21 0.000128646
28 *201:36 *210:40 2.65814e-06
29 *201:36 *218:22 7.48806e-05
30 *201:36 *227:89 0.000207571
31 *201:38 *1412:D 0.00055126
32 *201:61 *211:12 0.000849664
33 *201:72 *202:66 0
34 *1416:A1 *201:38 0.000155491
35 *1416:B1 *201:36 0.000620161
36 *1427:A *201:14 0.000517192
37 *1451:D *201:36 0.000605651
38 *1457:A2 *1457:A1 0.00037308
39 *1471:C *201:36 0.000109198
40 *1474:C *1474:B 0.00281399
41 *1494:A *201:14 2.99953e-05
42 *1498:A1 *1454:A 0.000174347
43 *1498:A1 *201:14 0.000116216
44 *1501:A *201:46 0
45 *1505:A1 *201:72 0.000332951
46 *1505:A2 *1474:B 0.000196304
47 *1505:B1 *1474:B 7.10593e-06
48 *1505:B2 *1474:B 1.34503e-05
49 *1517:D1 *1454:A 2.15594e-05
50 *1519:B1 *1474:B 5.33373e-05
51 *1540:A *201:72 0
52 *1541:A *1457:A1 2.68721e-05
53 *1560:D *201:46 0.000115184
54 *1570:CLK *201:14 0.000143838
55 *1572:CLK *201:46 0
56 *1572:RESET_B *201:46 0.000158337
57 *1572:RESET_B *201:61 0.000166088
58 *1574:D *201:46 0.000839291
59 *1574:D *201:61 0.00138507
60 *56:26 *1457:A1 0.000441465
61 *56:26 *201:61 0.000951701
62 *56:26 *201:72 0.000337984
63 *72:10 *201:61 0.000216186
64 *88:12 *1458:B 8.58109e-05
65 *88:34 *1454:A 0.000837829
66 *95:32 *201:38 2.35435e-05
67 *97:44 *1454:A 2.04875e-05
68 *105:12 *1454:A 0.00064482
69 *105:52 *201:14 0
70 *105:56 *201:14 1.88602e-05
71 *105:77 *201:14 1.18243e-05
72 *129:35 *1453:A 7.79847e-05
73 *129:35 *201:38 0.000632936
74 *129:97 *1457:A1 0
75 *130:38 *1453:A 4.77757e-05
76 *156:10 *201:36 0.000112123
77 *183:16 *201:14 0.000721854
78 *183:22 *201:14 0.000807458
79 *184:112 *201:46 0
80 *186:27 *1474:B 0.000291658
81 *187:50 *201:36 0.000341286
82 *189:28 *201:61 0
83 *189:28 *201:72 0
84 *195:16 *201:72 0.000154399
*RES
1 *1570:Q *201:14 33.24 
2 *201:14 *201:36 41.635 
3 *201:36 *201:38 12.87 
4 *201:38 *201:46 13.88 
5 *201:46 *1411:B 7.845 
6 *201:46 *201:61 33.645 
7 *201:61 *1458:B 4.395 
8 *201:61 *201:72 9.54 
9 *201:72 *1474:B 39.24 
10 *201:72 *1457:A1 18.525 
11 *201:38 *1453:A 3.085 
12 *201:14 *1454:A 21.555 
*END

*D_NET *202 0.0296405
*CONN
*I *1457:B1 I *D sky130_fd_sc_hd__a21oi_2
*I *1474:A I *D sky130_fd_sc_hd__and4_1
*I *1458:A I *D sky130_fd_sc_hd__and3_2
*I *1411:A I *D sky130_fd_sc_hd__or4_2
*I *1571:Q O *D sky130_fd_sc_hd__dfrtp_4
*CAP
1 *1457:B1 0.000604987
2 *1474:A 0.00125823
3 *1458:A 2.60786e-05
4 *1411:A 0.000267034
5 *1571:Q 0.0018507
6 *202:66 0.00215309
7 *202:49 0.00311647
8 *202:20 0.00491825
9 *202:20 *1411:C 0.000574497
10 *202:20 *203:18 0.00017335
11 *202:20 *206:26 9.30927e-05
12 *202:20 *208:14 4.11718e-05
13 *202:20 *227:53 0.00015639
14 *202:49 *221:84 0.000295031
15 *1397:A *1458:A 0.000121019
16 *1411:B *202:20 0.000266529
17 *1411:D *1411:A 8.35106e-05
18 *1417:A2 *202:20 0.00158338
19 *1457:A1 *1457:B1 0.000158536
20 *1457:A2 *1457:B1 0.000525556
21 *1458:C *1458:A 0.000121019
22 *1461:B *1474:A 0.000110814
23 *1472:A *202:20 1.61377e-05
24 *1491:A *202:20 0.000311151
25 *1505:A1 *202:66 0
26 *1505:B1 *1474:A 0.00173075
27 *1505:C1 *1474:A 0.000235907
28 *1508:A *1474:A 0.000368634
29 *1519:A2 *1474:A 0.000858974
30 *1519:B1 *1474:A 0.00102277
31 *1540:A *1457:B1 0.00051156
32 *1540:A *202:66 4.87939e-05
33 *1564:RESET_B *202:49 0
34 *1577:D *202:20 0.000482601
35 *1577:RESET_B *202:20 7.75848e-05
36 *1579:RESET_B *202:49 0
37 *1580:CLK *1474:A 0.000112111
38 *1580:D *1474:A 6.67824e-05
39 *36:20 *1474:A 0.000347414
40 *97:22 *202:20 0.000170127
41 *99:20 *1457:B1 7.26348e-05
42 *99:20 *1474:A 0.00140989
43 *129:64 *202:20 9.08126e-05
44 *129:64 *202:49 0.000144469
45 *129:66 *202:49 0.000905442
46 *129:66 *202:66 2.85623e-05
47 *129:97 *1457:B1 0.000184496
48 *129:97 *202:66 0.000414467
49 *155:24 *202:20 0.000120655
50 *181:51 *1411:A 0.000126768
51 *189:28 *202:49 0.00102396
52 *189:28 *202:66 0.000102962
53 *200:90 *202:49 0.000155389
54 *201:72 *202:66 0
*RES
1 *1571:Q *202:20 43.84 
2 *202:20 *1411:A 7.08 
3 *202:20 *202:49 17.8709 
4 *202:49 *1458:A 4.74 
5 *202:49 *202:66 8.78 
6 *202:66 *1474:A 44.105 
7 *202:66 *1457:B1 20.27 
*END

*D_NET *203 0.020843
*CONN
*I *1461:A I *D sky130_fd_sc_hd__nand2_1
*I *1465:A I *D sky130_fd_sc_hd__nand3_1
*I *1460:A I *D sky130_fd_sc_hd__or2_1
*I *1464:A1 I *D sky130_fd_sc_hd__a21o_1
*I *1410:C I *D sky130_fd_sc_hd__and4_1
*I *1572:Q O *D sky130_fd_sc_hd__dfrtp_2
*CAP
1 *1461:A 0.000939867
2 *1465:A 0
3 *1460:A 6.87332e-05
4 *1464:A1 0.000907236
5 *1410:C 0
6 *1572:Q 0.00119785
7 *203:45 0.00124721
8 *203:37 0.000479061
9 *203:31 0.00156171
10 *203:18 0.00161187
11 *1460:A *224:12 6.71803e-06
12 *1464:A1 *1464:B1 0.000486883
13 *1464:A1 *224:12 1.75056e-05
14 *1464:A1 *225:16 6.73424e-05
15 *1464:A1 *225:30 6.92175e-05
16 *1464:A1 *225:75 9.06343e-05
17 *203:18 *1499:A 0.000270955
18 *203:18 *206:26 0.00090552
19 *203:37 *1465:B 3.75126e-05
20 *203:45 *1465:B 4.77757e-05
21 *203:45 *1483:A 0.00015639
22 *203:45 *224:12 1.54212e-05
23 *203:45 *224:18 0.000149604
24 *203:45 *225:75 0.00019409
25 *1419:A *1464:A1 0.000178321
26 *1445:B1 *1464:A1 0.000389077
27 *1461:B *1461:A 0.000825408
28 *1472:A *203:18 0.000278262
29 *1472:A *203:31 0.000193323
30 *1488:B *1461:A 0.000135714
31 *1499:B *203:18 0.000191343
32 *1501:B *203:18 2.49909e-05
33 *1502:A *1464:A1 0.000109292
34 *1563:CLK *203:18 0.000197397
35 *1566:RESET_B *203:18 0.00017963
36 *1566:RESET_B *203:31 0.000118407
37 *1572:D *203:18 0.000175014
38 *1584:CLK *1461:A 8.08153e-06
39 *1590:D *203:31 0.000264537
40 *42:12 *1461:A 0.00139685
41 *47:56 *1464:A1 6.27666e-05
42 *47:64 *1464:A1 0.000432167
43 *51:14 *203:31 6.57007e-05
44 *66:12 *1461:A 7.21296e-06
45 *72:8 *203:18 4.55327e-05
46 *88:24 *203:31 4.66826e-05
47 *88:24 *203:37 0.000144296
48 *88:24 *203:45 0.000744347
49 *125:12 *1464:A1 3.01244e-05
50 *129:103 *1461:A 9.2741e-05
51 *134:14 *1461:A 0.00149632
52 *134:14 *203:37 0.000228752
53 *134:26 *203:37 6.24832e-05
54 *134:26 *203:45 0.000302514
55 *135:20 *1464:A1 0.00159904
56 *155:24 *1460:A 5.83121e-06
57 *181:24 *1460:A 4.7003e-05
58 *191:43 *1461:A 6.1357e-05
59 *202:20 *203:18 0.00017335
*RES
1 *1572:Q *203:18 27.09 
2 *203:18 *1410:C 3.6 
3 *203:18 *203:31 10.925 
4 *203:31 *203:37 4.365 
5 *203:37 *203:45 11.7275 
6 *203:45 *1464:A1 27.8025 
7 *203:45 *1460:A 4.9875 
8 *203:37 *1465:A 1.6 
9 *203:31 *1461:A 37.175 
*END

*D_NET *204 0.0116086
*CONN
*I *1410:D I *D sky130_fd_sc_hd__and4_1
*I *1465:B I *D sky130_fd_sc_hd__nand3_1
*I *1464:B1 I *D sky130_fd_sc_hd__a21o_1
*I *1412:B I *D sky130_fd_sc_hd__and4b_1
*I *1573:Q O *D sky130_fd_sc_hd__dfrtp_1
*CAP
1 *1410:D 0.000549281
2 *1465:B 0.000253881
3 *1464:B1 0.000340978
4 *1412:B 0.000105196
5 *1573:Q 0.000183588
6 *204:38 0.00160909
7 *204:21 0.00127995
8 *204:10 0.000421835
9 *1410:D *1410:B 7.15604e-05
10 *1410:D *206:26 1.14169e-05
11 *1412:B *1412:C 4.77757e-05
12 *1412:B *1412:D 9.32212e-05
13 *1412:B *210:40 2.61778e-05
14 *1464:B1 *209:70 8.65905e-05
15 *204:10 *210:40 0.000231755
16 *204:10 *218:22 1.45184e-05
17 *204:10 *223:35 0.000118628
18 *204:21 *218:22 7.75916e-05
19 *204:21 *223:35 1.0129e-05
20 *204:38 *209:70 0.000167813
21 *204:38 *218:22 5.12017e-06
22 *204:38 *223:35 0.000303305
23 *1447:B *204:38 0.000996056
24 *1464:A1 *1464:B1 0.000486883
25 *1484:A3 *1464:B1 0.000433681
26 *1561:D *204:38 2.34423e-05
27 *1573:RESET_B *204:10 4.82919e-05
28 *1577:RESET_B *1410:D 0.000516721
29 *1577:RESET_B *204:38 0.000449756
30 *1588:D *204:10 1.66065e-05
31 *100:16 *204:21 0.000327698
32 *100:16 *204:38 0.00137845
33 *134:26 *1465:B 8.4841e-05
34 *134:40 *1464:B1 8.23457e-05
35 *141:10 *1465:B 0.000443492
36 *187:69 *204:10 8.90672e-05
37 *201:36 *204:10 7.9642e-06
38 *201:36 *204:21 0.000128646
39 *203:37 *1465:B 3.75126e-05
40 *203:45 *1465:B 4.77757e-05
*RES
1 *1573:Q *204:10 7.98 
2 *204:10 *1412:B 5.43 
3 *204:10 *204:21 4.185 
4 *204:21 *1464:B1 12 
5 *204:21 *204:38 22.925 
6 *204:38 *1465:B 11.6 
7 *204:38 *1410:D 8.605 
*END

*D_NET *205 0.0143258
*CONN
*I *1410:B I *D sky130_fd_sc_hd__and4_1
*I *1468:A I *D sky130_fd_sc_hd__inv_2
*I *1412:C I *D sky130_fd_sc_hd__and4b_1
*I *1574:Q O *D sky130_fd_sc_hd__dfrtp_1
*CAP
1 *1410:B 0.000653121
2 *1468:A 2.27092e-05
3 *1412:C 6.28105e-05
4 *1574:Q 0.00171924
5 *205:61 0.00149664
6 *205:30 0.00260285
7 *1410:B *1438:A 0.000347522
8 *1410:B *206:26 5.20981e-05
9 *1412:C *1412:D 2.01504e-05
10 *205:30 *1412:A_N 9.87902e-05
11 *205:30 *1412:D 0.000173349
12 *205:30 *1451:B 0
13 *205:30 *210:22 4.34703e-05
14 *205:61 *1451:B 0
15 *205:61 *208:14 1.00941e-05
16 *205:61 *208:18 1.00941e-05
17 *205:61 *208:32 0.000130361
18 *205:61 *210:22 8.26392e-05
19 *1410:D *1410:B 7.15604e-05
20 *1412:B *1412:C 4.77757e-05
21 *1416:A1 *205:30 6.51658e-05
22 *1431:A *205:30 0.000344766
23 *1441:B *205:61 7.91584e-06
24 *1449:A *205:61 5.27678e-05
25 *1452:C *205:30 6.54123e-05
26 *1462:B *205:30 0.0001861
27 *1462:C *205:61 0.000162211
28 *1471:C *1410:B 0
29 *1471:C *205:30 0.000110471
30 *1471:C *205:61 5.36514e-05
31 *1499:B *205:61 0.000305038
32 *1521:A *205:30 2.8585e-06
33 *1539:A *1410:B 4.54034e-05
34 *1574:CLK *205:30 0.000495107
35 *1574:D *205:30 6.45562e-05
36 *1574:RESET_B *205:30 7.25921e-05
37 *1577:RESET_B *1410:B 0.00018886
38 *47:20 *205:30 8.94713e-05
39 *47:33 *205:30 9.09288e-05
40 *66:12 *205:30 0.000592393
41 *66:12 *205:61 0.000663998
42 *76:28 *1410:B 3.9848e-05
43 *76:28 *1468:A 0.000122797
44 *76:28 *205:61 4.77807e-05
45 *95:32 *205:30 0.000118081
46 *135:20 *205:30 2.12353e-05
47 *141:10 *1410:B 0
48 *156:10 *1410:B 0.000168202
49 *156:10 *205:30 0.000343643
50 *156:10 *205:61 0.000663998
51 *180:56 *1410:B 0.000305175
52 *190:14 *205:30 9.0501e-05
53 *193:28 *205:30 0.000965474
54 *196:37 *1468:A 7.27003e-05
55 *196:37 *205:61 6.14194e-05
*RES
1 *1574:Q *205:30 49.595 
2 *205:30 *1412:C 4.395 
3 *205:30 *205:61 28.225 
4 *205:61 *1468:A 2.74 
5 *205:61 *1410:B 19.94 
*END

*D_NET *206 0.0200498
*CONN
*I *1410:A I *D sky130_fd_sc_hd__and4_1
*I *1412:D I *D sky130_fd_sc_hd__and4b_1
*I *1473:A I *D sky130_fd_sc_hd__inv_2
*I *1575:Q O *D sky130_fd_sc_hd__dfrtp_2
*CAP
1 *1410:A 0
2 *1412:D 0.000751709
3 *1473:A 0.000819738
4 *1575:Q 0.00208866
5 *206:26 0.00230125
6 *206:14 0.000777125
7 *206:10 0.00213598
8 *1412:D *1412:A_N 2.78607e-05
9 *1412:D *210:40 1.89017e-05
10 *206:14 *1438:A 2.50702e-05
11 *206:26 *1416:C1 0.000317126
12 *206:26 *1438:A 2.36616e-05
13 *230:DIODE *1473:A 8.40213e-05
14 *1410:B *206:26 5.20981e-05
15 *1410:D *206:26 1.14169e-05
16 *1412:B *1412:D 9.32212e-05
17 *1412:C *1412:D 2.01504e-05
18 *1416:A1 *1412:D 9.70285e-05
19 *1451:C *1473:A 6.81984e-05
20 *1452:B *1473:A 1.92979e-05
21 *1452:C *1473:A 0.000217717
22 *1462:C *1473:A 0.000117835
23 *1471:A *1473:A 0.000157555
24 *1471:C *1473:A 0.000120655
25 *1472:A *206:10 0.00031422
26 *1472:A *206:26 9.3062e-06
27 *1490:C *1473:A 0.000218107
28 *1490:C *206:26 8.18997e-05
29 *1491:A *206:26 0.000380941
30 *1511:B *1473:A 0.0001249
31 *1523:A *206:10 2.75229e-05
32 *1563:D *1473:A 0.000245374
33 *1566:CLK *1473:A 0.000153686
34 *1566:RESET_B *206:10 0.000129954
35 *1566:RESET_B *206:26 0.000105665
36 *1567:D *1473:A 6.62524e-05
37 *1568:D *1473:A 5.80923e-05
38 *1575:CLK *206:10 0.000198203
39 *1575:D *206:10 0.0002117
40 *1580:D *206:10 0.00100566
41 *1583:RESET_B *1473:A 0.000256523
42 *1590:D *206:26 0.000484234
43 *1595:A *1473:A 3.37523e-05
44 *47:33 *1473:A 0.000215746
45 *47:33 *206:26 0.000111149
46 *48:18 *1473:A 0.000150525
47 *50:12 *206:10 0.00030541
48 *84:18 *1473:A 0.000201503
49 *98:37 *206:10 0
50 *115:14 *206:10 0.000381337
51 *115:91 *206:10 0.00140292
52 *129:103 *206:10 1.10808e-05
53 *130:38 *206:26 0.00042354
54 *142:28 *1473:A 1.46828e-05
55 *145:8 *1473:A 2.30292e-05
56 *171:12 *1473:A 0.000283378
57 *186:21 *206:10 0
58 *189:28 *206:10 0.000114492
59 *191:43 *206:10 0.000235568
60 *201:38 *1412:D 0.00055126
61 *202:20 *206:26 9.30927e-05
62 *203:18 *206:26 0.00090552
63 *205:30 *1412:D 0.000173349
*RES
1 *1575:Q *206:10 49.2 
2 *206:10 *206:14 2.795 
3 *206:14 *206:26 24.395 
4 *206:26 *1473:A 30.94 
5 *206:26 *1412:D 15.0787 
6 *206:14 *1410:A 1.6 
*END

*D_NET *207 0.030963
*CONN
*I *1487:D I *D sky130_fd_sc_hd__and4_1
*I *1413:B I *D sky130_fd_sc_hd__and4b_1
*I *1478:A I *D sky130_fd_sc_hd__nand2_1
*I *1484:A2 I *D sky130_fd_sc_hd__a31o_1
*I *1477:A I *D sky130_fd_sc_hd__or2_1
*I *1486:A3 I *D sky130_fd_sc_hd__a41o_1
*I *1576:Q O *D sky130_fd_sc_hd__dfrtp_4
*CAP
1 *1487:D 0.00124483
2 *1413:B 0
3 *1478:A 7.9705e-05
4 *1484:A2 0.00103169
5 *1477:A 0.000705116
6 *1486:A3 0.00104608
7 *1576:Q 0.000951314
8 *207:122 0.00217725
9 *207:89 0.00105602
10 *207:30 0.00274445
11 *207:20 0.0026464
12 *207:14 0.00161667
13 *1484:A2 *1484:B1 0.000306614
14 *1484:A2 *208:32 9.03508e-06
15 *1484:A2 *209:60 2.92496e-05
16 *1484:A2 *209:70 4.66108e-05
17 *1484:A2 *210:22 5.38986e-05
18 *1484:A2 *219:49 1.15688e-05
19 *1486:A3 *209:31 0.000115146
20 *1487:D *1413:D 0.000710351
21 *207:20 *1450:B1 0.000465157
22 *207:30 *212:75 0
23 *207:30 *217:29 0.0020812
24 *207:89 *1450:B1 4.36573e-06
25 *207:122 *1413:D 4.77757e-05
26 *207:122 *1450:B1 2.70998e-05
27 *207:122 *213:35 0.00041387
28 an[2] *1486:A3 4.82919e-05
29 *1423:A *207:14 1.87723e-05
30 *1428:A *1486:A3 0.000412495
31 *1428:A *207:30 0.000244928
32 *1430:A_N *1486:A3 0.000349877
33 *1430:B *1486:A3 3.02915e-05
34 *1430:C *1486:A3 4.77719e-05
35 *1437:A2 *1486:A3 0.000103668
36 *1449:A *207:20 0.000104095
37 *1454:B *207:20 0
38 *1454:B *207:122 0
39 *1477:B *1477:A 0.000958219
40 *1478:B *1478:A 4.66108e-05
41 *1484:A3 *1484:A2 0.000181015
42 *1485:A1 *207:122 0.000268085
43 *1486:A4 *1486:A3 4.89295e-05
44 *1494:C *207:30 0.000242146
45 *1498:A1 *207:30 0.000128848
46 *1505:A1 *207:20 0.00016629
47 *1516:C *207:20 0
48 *1517:C1 *207:20 0.000219944
49 *1564:D *1484:A2 0.00110529
50 *1564:D *207:30 0.00040691
51 *1569:D *207:20 3.90266e-05
52 *1576:D *1478:A 0.000195087
53 *1576:RESET_B *1478:A 5.35034e-05
54 *1578:CLK *1486:A3 0.000181296
55 *1578:RESET_B *1486:A3 0.000119066
56 *1582:D *207:30 0.00154641
57 *1586:RESET_B *207:14 5.27744e-05
58 *1586:RESET_B *207:30 0.000171445
59 *1588:D *207:14 9.58678e-06
60 *23:18 *207:122 0
61 *88:24 *207:122 5.1875e-05
62 *89:18 *1484:A2 6.9117e-05
63 *92:16 *207:122 0.000289011
64 *100:16 *1484:A2 0.000134509
65 *105:112 *1484:A2 0.000614473
66 *108:30 *207:14 0.000191361
67 *138:10 *1484:A2 0.000162083
68 *141:10 *1487:D 0
69 *146:12 *207:20 0.000291989
70 *147:22 *1484:A2 0.000470158
71 *147:22 *207:30 0.000187843
72 *147:149 *207:122 0.000134055
73 *153:8 *207:30 7.6677e-05
74 *180:143 *1478:A 4.66108e-05
75 *180:143 *207:122 0.000155928
76 *187:50 *207:20 0.000449585
77 *187:138 *1487:D 0.000425463
78 *189:42 *207:14 2.05641e-05
79 *190:69 *1487:D 6.95739e-05
*RES
1 *1576:Q *207:14 6.50197 
2 *207:14 *207:20 17.8925 
3 *207:20 *207:30 35.48 
4 *207:30 *1486:A3 22.995 
5 *207:30 *1477:A 13.38 
6 *207:20 *1484:A2 34.935 
7 *207:14 *207:89 0.6825 
8 *207:89 *1478:A 5.79 
9 *207:89 *207:122 25.02 
10 *207:122 *1413:B 1.6 
11 *207:122 *1487:D 25.695 
*END

*D_NET *208 0.033833
*CONN
*I *1487:C I *D sky130_fd_sc_hd__and4_1
*I *1481:A I *D sky130_fd_sc_hd__xor2_1
*I *1413:A_N I *D sky130_fd_sc_hd__and4b_1
*I *1483:B I *D sky130_fd_sc_hd__nand2_1
*I *1484:A1 I *D sky130_fd_sc_hd__a31o_1
*I *1486:A2 I *D sky130_fd_sc_hd__a41o_1
*I *1406:A2 I *D sky130_fd_sc_hd__a21o_1
*I *1577:Q O *D sky130_fd_sc_hd__dfrtp_4
*CAP
1 *1487:C 0.000666718
2 *1481:A 0.000595204
3 *1413:A_N 9.73191e-06
4 *1483:B 7.73804e-05
5 *1484:A1 0
6 *1486:A2 0.000235442
7 *1406:A2 0.000639673
8 *1577:Q 0.000495903
9 *208:94 0.000718188
10 *208:81 0.0017354
11 *208:75 0.00512276
12 *208:38 0.00132983
13 *208:32 0.00151211
14 *208:18 0.00106726
15 *208:14 0.00341705
16 *1406:A2 *1406:A1 0.000335905
17 *1413:A_N *1403:A1 4.82863e-05
18 *1481:A *222:30 0.000544989
19 *1483:B *1483:A 4.99619e-05
20 *1483:B *219:49 2.26509e-05
21 *1487:C *221:84 0.000110156
22 *208:32 *1484:B1 2.89071e-05
23 *208:38 *1406:B1 0.000228871
24 *208:38 *210:40 0.000904236
25 *208:75 *1487:A 0.000267876
26 *208:81 *221:84 0
27 *208:81 *227:26 0.000141397
28 *1413:C *1413:A_N 4.82863e-05
29 *1417:A2 *208:14 0.000486902
30 *1430:C *1406:A2 0.000269925
31 *1431:A *208:32 0.000689794
32 *1441:B *208:14 0.000153372
33 *1441:B *208:18 1.88602e-05
34 *1441:B *208:75 0.000115765
35 *1449:A *208:75 7.66738e-05
36 *1452:B *208:81 0
37 *1462:C *208:32 0.000204926
38 *1463:A *208:81 0.000220657
39 *1469:A *1481:A 0.00085246
40 *1469:B *1481:A 0.000215534
41 *1471:C *208:14 0.00015264
42 *1484:A2 *208:32 9.03508e-06
43 *1486:A4 *1486:A2 8.77473e-05
44 *1544:A *1481:A 4.66108e-05
45 *1570:CLK *1406:A2 4.66108e-05
46 *1577:RESET_B *208:14 8.52845e-05
47 *1586:D *208:32 0.000435204
48 *21:6 *208:38 0.00215847
49 *47:105 *208:81 2.17773e-05
50 *65:20 *1481:A 0.000860816
51 *65:20 *208:94 5.67745e-05
52 *66:12 *208:32 0.00180662
53 *88:24 *1483:B 4.82919e-05
54 *94:26 *1406:A2 0.00041311
55 *95:123 *1486:A2 0
56 *141:10 *1487:C 0
57 *141:10 *208:75 0.00010784
58 *147:149 *1483:B 0.000144264
59 *147:149 *208:94 0.000204752
60 *156:10 *208:32 0.00186588
61 *175:62 *1481:A 0.000372132
62 *175:62 *1483:B 0.000209955
63 *175:62 *208:94 0.000236533
64 *180:14 *1486:A2 5.16701e-05
65 *190:69 *1487:C 2.56866e-05
66 *200:10 *1406:A2 3.1889e-05
67 *200:10 *1486:A2 2.02052e-05
68 *200:10 *208:38 0.000464188
69 *201:14 *1406:A2 1.82682e-05
70 *202:20 *208:14 4.11718e-05
71 *205:61 *208:14 1.00941e-05
72 *205:61 *208:18 1.00941e-05
73 *205:61 *208:32 0.000130361
*RES
1 *1577:Q *208:14 13.4925 
2 *208:14 *208:18 2.2325 
3 *208:18 *208:32 38.32 
4 *208:32 *208:38 22.8575 
5 *208:38 *1406:A2 16.7925 
6 *208:38 *1486:A2 8.1675 
7 *208:18 *1484:A1 1.6 
8 *208:14 *208:75 5.2978 
9 *208:75 *208:81 3.5726 
10 *208:81 *1483:B 6.5775 
11 *208:81 *208:94 3.8025 
12 *208:94 *1413:A_N 4.05 
13 *208:94 *1481:A 23.715 
14 *208:75 *1487:C 6.0869 
*END

*D_NET *209 0.025915
*CONN
*I *1484:B1 I *D sky130_fd_sc_hd__a31o_1
*I *1487:B I *D sky130_fd_sc_hd__and4_1
*I *1413:D I *D sky130_fd_sc_hd__and4b_1
*I *1483:A I *D sky130_fd_sc_hd__nand2_1
*I *1486:A1 I *D sky130_fd_sc_hd__a41o_1
*I *1406:A1 I *D sky130_fd_sc_hd__a21o_1
*I *1578:Q O *D sky130_fd_sc_hd__dfrtp_4
*CAP
1 *1484:B1 0.000303642
2 *1487:B 0.000193041
3 *1413:D 0.000461861
4 *1483:A 0.000507589
5 *1486:A1 5.48213e-05
6 *1406:A1 0.000498773
7 *1578:Q 0
8 *209:85 0.000874844
9 *209:70 0.00157039
10 *209:60 0.00270773
11 *209:56 0.00227958
12 *209:31 0.00120077
13 *209:4 0.000926368
14 *1413:D *1403:A1 1.93752e-05
15 *1413:D *227:26 5.19964e-05
16 *1486:A1 *1486:B1 4.82863e-05
17 *209:31 *1486:B1 2.59981e-05
18 *209:56 *1437:A1 0.000556228
19 *209:56 *1437:B1 0
20 *209:56 *1486:B1 8.65961e-05
21 *209:60 *1441:A 0.000408326
22 *209:60 *210:22 0.000450799
23 *209:60 *218:10 0.00053698
24 *209:60 *218:22 0
25 *209:60 *223:35 0.000934281
26 *209:70 *218:22 0.000473577
27 *209:85 *225:75 0.000119666
28 an[3] *209:56 0.0001249
29 an[4] *209:56 8.53113e-06
30 *1392:C *209:60 0
31 *1406:A2 *1406:A1 0.000335905
32 *1413:C *1413:D 0.000518889
33 *1424:A *1413:D 2.00443e-05
34 *1430:A_N *209:31 0.000237196
35 *1430:B *1406:A1 0
36 *1430:B *209:31 0.000237018
37 *1437:A2 *1486:A1 2.0514e-05
38 *1437:A2 *209:31 0.000419783
39 *1437:A2 *209:56 0.000318681
40 *1445:B1 *1413:D 0.000118081
41 *1445:B1 *209:70 0.000216661
42 *1447:B *209:70 0.000614957
43 *1464:B1 *209:70 8.65905e-05
44 *1483:B *1483:A 4.99619e-05
45 *1484:A2 *1484:B1 0.000306614
46 *1484:A2 *209:60 2.92496e-05
47 *1484:A2 *209:70 4.66108e-05
48 *1484:A3 *209:70 2.14725e-05
49 *1485:A1 *1483:A 1.08758e-05
50 *1486:A3 *209:31 0.000115146
51 *1486:A4 *1486:A1 4.35648e-05
52 *1486:A4 *209:31 3.9442e-05
53 *1487:D *1413:D 0.000710351
54 *1488:B *1487:B 4.65315e-05
55 *1520:A *209:60 0.000328534
56 *1561:D *1413:D 0.000450935
57 *1561:D *1487:B 4.66108e-05
58 *1561:D *209:70 0.000841879
59 *1561:D *209:85 0.000580304
60 *1566:RESET_B *209:60 0
61 *1567:RESET_B *209:60 0
62 *1578:CLK *1406:A1 0
63 *1586:RESET_B *209:60 0.000248865
64 *1591:RESET_B *209:60 0.000277149
65 *1599:A *1413:D 8.23457e-05
66 *66:28 *209:60 0
67 *88:24 *1483:A 0.000518048
68 *94:26 *1406:A1 0.000159179
69 *100:16 *209:60 0.000111819
70 *119:10 *209:60 0
71 *119:10 *209:70 0.000168374
72 *125:12 *209:70 0.000519073
73 *125:12 *209:85 0.000126751
74 *134:26 *1483:A 0.000627089
75 *154:12 *209:56 0.000279963
76 *155:8 *1413:D 7.72859e-05
77 *155:8 *1487:B 5.31612e-05
78 *201:14 *1406:A1 2.76356e-05
79 *203:45 *1483:A 0.00015639
80 *204:38 *209:70 0.000167813
81 *207:122 *1413:D 4.77757e-05
82 *208:32 *1484:B1 2.89071e-05
*RES
1 *1578:Q *209:4 1.6 
2 *209:4 *1406:A1 14.795 
3 *209:4 *209:31 14.065 
4 *209:31 *1486:A1 2.755 
5 *209:31 *209:56 19.365 
6 *209:56 *209:60 37.55 
7 *209:60 *209:70 25.91 
8 *209:70 *1483:A 14.76 
9 *209:70 *209:85 8.99 
10 *209:85 *1413:D 16.0788 
11 *209:85 *1487:B 4.81 
12 *209:60 *1484:B1 5.77 
*END

*D_NET *210 0.0227507
*CONN
*I *1487:A I *D sky130_fd_sc_hd__and4_1
*I *1412:A_N I *D sky130_fd_sc_hd__and4b_1
*I *1486:B1 I *D sky130_fd_sc_hd__a41o_1
*I *1406:B1 I *D sky130_fd_sc_hd__a21o_1
*I *1579:Q O *D sky130_fd_sc_hd__dfrtp_2
*CAP
1 *1487:A 0.000820794
2 *1412:A_N 0.000141521
3 *1486:B1 0.000241202
4 *1406:B1 0.000572649
5 *1579:Q 0.00161038
6 *210:40 0.00206846
7 *210:22 0.00236242
8 *210:14 0.00339746
9 *1412:A_N *1451:B 2.2684e-05
10 *210:14 *211:6 0.000398501
11 *210:14 *211:87 7.79847e-05
12 *210:22 *1451:B 0
13 *210:22 *225:30 6.37482e-05
14 *210:40 *1392:A 0.000142939
15 *210:40 *1497:A 3.39151e-05
16 *210:40 *218:22 5.54475e-05
17 *1396:A *210:40 0.00114032
18 *1400:A *1487:A 0
19 *1411:D *210:14 2.97004e-06
20 *1412:B *210:40 2.61778e-05
21 *1412:D *1412:A_N 2.78607e-05
22 *1412:D *210:40 1.89017e-05
23 *1419:A *210:40 0.00117072
24 *1427:A *1406:B1 0.000175811
25 *1437:A2 *1486:B1 0.000122331
26 *1441:B *210:22 0
27 *1484:A2 *210:22 5.38986e-05
28 *1486:A1 *1486:B1 4.82863e-05
29 *1486:A4 *1486:B1 0.000260524
30 *1488:B *1487:A 8.49218e-05
31 *1497:D *210:40 0
32 *1561:D *210:14 6.31732e-05
33 *1563:RESET_B *1487:A 0
34 *1563:RESET_B *210:22 0.00049259
35 *1564:RESET_B *210:14 7.23533e-05
36 *1578:CLK *1406:B1 6.04973e-05
37 *1588:D *210:40 6.95753e-05
38 *1591:CLK *210:40 0.000193136
39 *1591:D *210:40 0.000194299
40 *1606:A *210:14 0.00022235
41 *21:6 *1406:B1 0.000575252
42 *57:20 *210:14 0.00011201
43 *87:18 *210:40 0
44 *100:16 *210:22 6.87475e-05
45 *119:10 *210:40 0.000177757
46 *120:30 *210:14 1.13785e-05
47 *141:10 *1487:A 0.00139726
48 *141:10 *210:22 0
49 *180:35 *210:14 0.000155601
50 *180:35 *210:22 0.000233126
51 *180:56 *210:14 4.40325e-06
52 *183:22 *1406:B1 5.13751e-05
53 *187:69 *210:40 4.17004e-05
54 *189:80 *210:40 0.000359369
55 *190:69 *1487:A 0
56 *200:10 *1406:B1 0.000107546
57 *200:10 *210:40 0.000520728
58 *201:36 *210:40 2.65814e-06
59 *204:10 *210:40 0.000231755
60 *205:30 *1412:A_N 9.87902e-05
61 *205:30 *210:22 4.34703e-05
62 *205:61 *210:22 8.26392e-05
63 *208:38 *1406:B1 0.000228871
64 *208:38 *210:40 0.000904236
65 *208:75 *1487:A 0.000267876
66 *209:31 *1486:B1 2.59981e-05
67 *209:56 *1486:B1 8.65961e-05
68 *209:60 *210:22 0.000450799
*RES
1 *1579:Q *210:14 25.31 
2 *210:14 *210:22 22.6 
3 *210:22 *210:40 46.01 
4 *210:40 *1406:B1 19.235 
5 *210:40 *1486:B1 11.18 
6 *210:22 *1412:A_N 7.7 
7 *210:14 *1487:A 23.075 
*END

*D_NET *211 0.0408125
*CONN
*I *1429:A2 I *D sky130_fd_sc_hd__a31o_1
*I *1407:C I *D sky130_fd_sc_hd__and4_2
*I *1426:A1 I *D sky130_fd_sc_hd__a21o_1
*I *1422:A I *D sky130_fd_sc_hd__or2_1
*I *1421:A I *D sky130_fd_sc_hd__nand2_1
*I *1425:B I *D sky130_fd_sc_hd__nand3_1
*I *1561:Q O *D sky130_fd_sc_hd__dfrtp_4
*CAP
1 *1429:A2 0
2 *1407:C 0.000395535
3 *1426:A1 0.000239406
4 *1422:A 0.000321391
5 *1421:A 0.000684128
6 *1425:B 0.00201731
7 *1561:Q 0.000191381
8 *211:108 0.00182193
9 *211:87 0.00427396
10 *211:18 0.00317774
11 *211:12 0.00105513
12 *211:6 0.00305698
13 *1407:C *1407:B 4.66108e-05
14 *1425:B *1408:C 4.40419e-05
15 *1425:B *1425:A 0.00129918
16 *1425:B *1440:A 0.000193136
17 *1426:A1 *1426:B1 0.000290691
18 *1426:A1 *219:8 2.89143e-05
19 *211:87 *219:8 0.000833881
20 *211:108 *1429:A1 8.83862e-05
21 *211:108 *219:23 0.0030887
22 *1395:A *1425:B 0.0001113
23 *1397:B *1421:A 0.000132946
24 *1407:D *1407:C 0.00121356
25 *1411:D *211:87 5.05066e-06
26 *1421:B *1421:A 0.000378034
27 *1422:B *1422:A 0.000110147
28 *1425:C *1425:B 0.00242591
29 *1440:B *1421:A 0.000128593
30 *1440:B *211:18 0.00150479
31 *1442:B *1425:B 0.000327755
32 *1459:C *1407:C 1.91597e-05
33 *1462:A *211:108 0.000653456
34 *1462:C *211:108 1.1014e-05
35 *1495:A *211:87 0
36 *1505:B2 *1421:A 9.13184e-05
37 *1523:A *1425:B 0.00163703
38 *1558:A *211:18 0.000127799
39 *1560:D *211:87 0.000135448
40 *1564:RESET_B *211:87 1.93765e-05
41 *1574:D *211:87 0.00101144
42 *1579:RESET_B *211:87 0.000947185
43 *1587:RESET_B *211:18 0.00019909
44 *1606:A *211:6 0.000707062
45 *1606:A *211:87 0.000153816
46 *72:10 *1421:A 0.000667368
47 *72:10 *211:12 0.000844935
48 *72:10 *211:18 0.000731486
49 *94:26 *211:108 1.96753e-05
50 *130:38 *211:87 1.02564e-05
51 *139:33 *1425:B 8.70195e-05
52 *180:14 *1407:C 0.00116459
53 *191:8 *1421:A 2.97561e-05
54 *199:36 *1421:A 0.000238137
55 *200:61 *1426:A1 0
56 *200:61 *211:87 0
57 *200:100 *1422:A 0.000375343
58 *200:100 *211:18 0.000118081
59 *201:61 *211:12 0.000849664
60 *210:14 *211:6 0.000398501
61 *210:14 *211:87 7.79847e-05
*RES
1 *1561:Q *211:6 8.26 
2 *211:6 *211:12 14.05 
3 *211:12 *211:18 20.585 
4 *211:18 *1425:B 49.57 
5 *211:18 *1421:A 26.56 
6 *211:12 *1422:A 6.88 
7 *211:6 *211:87 33.8274 
8 *211:87 *1426:A1 8.07 
9 *211:87 *211:108 35.015 
10 *211:108 *1407:C 20.27 
11 *211:108 *1429:A2 1.6 
*END

*D_NET *212 0.0292679
*CONN
*I *1493:A I *D sky130_fd_sc_hd__nand2_1
*I *1415:C I *D sky130_fd_sc_hd__and4_1
*I *1497:A I *D sky130_fd_sc_hd__and4_1
*I *1492:A I *D sky130_fd_sc_hd__or2_1
*I *1580:Q O *D sky130_fd_sc_hd__dfrtp_2
*CAP
1 *1493:A 2.08101e-05
2 *1415:C 0
3 *1497:A 4.58794e-05
4 *1492:A 0.000611446
5 *1580:Q 0.0024682
6 *212:75 0.00234904
7 *212:63 0.00328156
8 *212:38 0.0018964
9 *212:30 0.000448536
10 *212:28 0.00258937
11 *212:30 *1403:A1 0.000118081
12 *212:38 *216:26 0.000356976
13 *212:63 *1415:B 9.50342e-06
14 *212:63 *216:41 8.35118e-05
15 *212:75 *1398:A1_N 0
16 *212:75 *1415:B 0.000351306
17 *212:75 *1510:A 0.000234669
18 *212:75 *214:10 0.00100626
19 *212:75 *217:14 0.00210543
20 *1403:B1 *212:28 0.000279826
21 *1403:B1 *212:30 8.52883e-05
22 *1423:A *212:63 0.000112246
23 *1424:A *212:63 0.00063508
24 *1442:B *212:28 0
25 *1445:A1 *212:28 0
26 *1479:B *1492:A 0.000133329
27 *1492:B *1492:A 0.0001753
28 *1492:B *212:38 1.0397e-05
29 *1494:B *212:75 0
30 *1494:C *212:75 0.0001426
31 *1495:A *212:75 1.44809e-05
32 *1504:A *212:28 7.12477e-05
33 *1504:B *212:28 7.02432e-05
34 *1505:A1 *212:28 0.000243014
35 *1507:B *212:38 0.000116578
36 *1507:C *1492:A 5.18008e-05
37 *1507:C *212:63 1.80638e-05
38 *1508:C *212:38 0
39 *1511:C *212:75 0.000240189
40 *1524:B1_N *212:30 0.000241849
41 *1586:RESET_B *212:63 0.00024146
42 *1586:RESET_B *212:75 0.000245205
43 *47:105 *212:28 0
44 *70:10 *212:63 0.00238844
45 *70:10 *212:75 0.00139821
46 *86:16 *212:28 0.0011418
47 *87:18 *1497:A 4.94404e-05
48 *87:34 *212:28 0.000235339
49 *87:34 *212:30 7.88945e-05
50 *96:12 *212:63 0.000943294
51 *122:32 *212:28 2.53191e-06
52 *156:25 *212:63 5.12248e-05
53 *160:10 *212:30 0.000259648
54 *160:10 *212:38 1.08758e-05
55 *160:10 *212:63 0
56 *170:8 *1492:A 4.66108e-05
57 *179:132 *212:28 0.000300648
58 *187:14 *1492:A 0.000197833
59 *187:14 *212:38 2.15168e-05
60 *187:138 *212:28 0.000627522
61 *188:113 *212:28 0.000374933
62 *207:30 *212:75 0
63 *210:40 *1497:A 3.39151e-05
*RES
1 *1580:Q *212:28 49.095 
2 *212:28 *212:30 4.245 
3 *212:30 *212:38 9.925 
4 *212:38 *1492:A 15.845 
5 *212:38 *212:63 32.93 
6 *212:63 *212:75 49.615 
7 *212:75 *1497:A 4.725 
8 *212:63 *1415:C 3.6 
9 *212:30 *1493:A 1.96 
*END

*D_NET *213 0.0261419
*CONN
*I *1415:D I *D sky130_fd_sc_hd__and4_1
*I *1497:B I *D sky130_fd_sc_hd__and4_1
*I *1496:A I *D sky130_fd_sc_hd__inv_2
*I *1581:Q O *D sky130_fd_sc_hd__dfrtp_2
*CAP
1 *1415:D 0.000433259
2 *1497:B 0.0015455
3 *1496:A 0.00120672
4 *1581:Q 3.26233e-05
5 *213:61 0.00285331
6 *213:35 0.00265235
7 *213:6 0.00301714
8 *1415:D *1415:A 0.000264481
9 *213:35 *1444:A 0.000338806
10 *213:35 *221:84 0.00043963
11 *213:35 *222:10 0
12 *213:35 *222:30 0
13 *1394:B *213:35 0.000441646
14 *1409:B *1415:D 9.03508e-06
15 *1414:B1 *1496:A 5.20626e-05
16 *1414:B1 *213:35 0
17 *1451:D *1415:D 9.38165e-05
18 *1474:D *213:6 4.89295e-05
19 *1474:D *213:35 3.6355e-05
20 *1497:C *1497:B 0.000604987
21 *1497:D *1497:B 1.91597e-05
22 *1498:B1 *1497:B 0.000116243
23 *1500:B *1497:B 0.000102682
24 *1504:A *1496:A 7.9642e-06
25 *1519:A2 *213:35 0.000752806
26 *1534:A *1496:A 2.76541e-05
27 *1564:D *213:61 0.000267526
28 *1565:CLK *1496:A 0
29 *1571:RESET_B *213:61 0.000117093
30 *1586:RESET_B *1497:B 0.000123038
31 *1591:D *213:61 0.000401111
32 *23:18 *213:35 0
33 *36:20 *213:35 0.000130992
34 *39:14 *1497:B 0.00121396
35 *57:20 *213:35 3.96263e-05
36 *57:20 *213:61 9.91872e-06
37 *85:10 *213:35 0.000175234
38 *88:24 *213:35 0.000153263
39 *95:16 *1497:B 0.000408788
40 *95:70 *1415:D 0.000195861
41 *95:70 *1497:B 0.000120396
42 *95:123 *1497:B 0.000798266
43 *96:14 *1415:D 0.000395989
44 *97:22 *213:61 3.27888e-05
45 *103:8 *1415:D 6.16774e-05
46 *105:112 *213:61 0.000148485
47 *115:56 *1497:B 0.000195745
48 *129:103 *213:35 0.000307429
49 *133:30 *1497:B 0.000278437
50 *133:30 *213:35 0
51 *133:30 *213:61 0.000247932
52 *147:34 *1497:B 0.00012182
53 *175:62 *213:35 0.00101525
54 *176:47 *213:35 0.000245206
55 *179:18 *213:35 0.00072644
56 *179:28 *213:35 0.000115254
57 *183:64 *1497:B 6.70324e-06
58 *183:64 *213:61 0
59 *185:16 *1496:A 0.000393024
60 *187:50 *1497:B 5.02217e-05
61 *187:50 *213:61 0.000334305
62 *188:160 *1497:B 3.83598e-05
63 *190:69 *213:35 0.000108242
64 *191:72 *213:35 9.15237e-06
65 *193:14 *1497:B 0
66 *194:14 *213:35 6.89789e-05
67 *199:28 *1496:A 0.00157437
68 *207:122 *213:35 0.00041387
*RES
1 *1581:Q *213:6 2.05 
2 *213:6 *1496:A 30.735 
3 *213:6 *213:35 47.4575 
4 *213:35 *213:61 26.1425 
5 *213:61 *1497:B 40.785 
6 *213:61 *1415:D 12.45 
*END

*D_NET *214 0.0152725
*CONN
*I *1415:B I *D sky130_fd_sc_hd__and4_1
*I *1499:A I *D sky130_fd_sc_hd__or2_1
*I *1500:A I *D sky130_fd_sc_hd__nand2_2
*I *1582:Q O *D sky130_fd_sc_hd__dfrtp_1
*CAP
1 *1415:B 0.000117178
2 *1499:A 0.00222493
3 *1500:A 0
4 *1582:Q 0.000540964
5 *214:16 0.00264288
6 *214:10 0.00107609
7 *1499:A *1401:A1 8.39093e-05
8 *1499:A *1417:B1_N 0.000246011
9 *1499:A *220:10 0.000914983
10 *1401:B1 *1499:A 4.66108e-05
11 *1417:A2 *1499:A 0.000664831
12 *1494:C *214:10 0.00027153
13 *1499:B *1499:A 7.47625e-05
14 *1563:D *1499:A 0.000779233
15 *1586:RESET_B *214:10 0.000171239
16 *1591:D *1499:A 0.00104085
17 *23:18 *1499:A 3.87937e-05
18 *91:8 *1499:A 4.40028e-05
19 *91:8 *214:16 0.000308657
20 *160:10 *1415:B 0.000141299
21 *160:10 *214:10 0.000118977
22 *165:16 *1499:A 0.000133567
23 *170:45 *214:10 0.000186646
24 *187:61 *1499:A 0.000267522
25 *188:32 *1499:A 3.98221e-05
26 *188:32 *214:16 0.000419758
27 *190:31 *1499:A 0.00103943
28 *203:18 *1499:A 0.000270955
29 *212:63 *1415:B 9.50342e-06
30 *212:75 *1415:B 0.000351306
31 *212:75 *214:10 0.00100626
*RES
1 *1582:Q *214:10 19.68 
2 *214:10 *214:16 10.4 
3 *214:16 *1500:A 1.6 
4 *214:16 *1499:A 49.805 
5 *214:10 *1415:B 7.785 
*END

*D_NET *215 0.00992606
*CONN
*I *1503:A I *D sky130_fd_sc_hd__inv_2
*I *1415:A I *D sky130_fd_sc_hd__and4_1
*I *1583:Q O *D sky130_fd_sc_hd__dfrtp_1
*CAP
1 *1503:A 0.000340799
2 *1415:A 0.000154025
3 *1583:Q 0.0013882
4 *215:14 0.00188302
5 *1415:D *1415:A 0.000264481
6 *1454:A *1503:A 0.000711623
7 *1454:A *215:14 0.00011686
8 *1498:A1 *1503:A 0.000120586
9 *1498:A1 *215:14 8.41703e-06
10 *1498:B1 *215:14 0.000133491
11 *1498:C1 *215:14 3.54742e-05
12 *1515:A *215:14 0.000567038
13 *1581:D *1503:A 9.82856e-06
14 *1581:D *215:14 0.000301557
15 *48:18 *215:14 0.000282334
16 *97:8 *1503:A 0.000445159
17 *97:44 *1503:A 0.000192355
18 *105:12 *1503:A 0.000123748
19 *175:18 *215:14 1.52352e-05
20 *188:32 *1503:A 2.31526e-05
21 *189:72 *215:14 0.000378332
22 *189:80 *215:14 0.00173716
23 *201:14 *215:14 0.000693179
*RES
1 *1583:Q *215:14 38.46 
2 *215:14 *1415:A 6.12 
3 *215:14 *1503:A 14.295 
*END

*D_NET *216 0.028449
*CONN
*I *1416:C1 I *D sky130_fd_sc_hd__o211ai_2
*I *1506:B1 I *D sky130_fd_sc_hd__a21oi_1
*I *1507:A I *D sky130_fd_sc_hd__and3_2
*I *1584:Q O *D sky130_fd_sc_hd__dfrtp_4
*CAP
1 *1416:C1 0.00267747
2 *1506:B1 0
3 *1507:A 0
4 *1584:Q 0.00125215
5 *216:41 0.00367655
6 *216:26 0.00265281
7 *216:22 0.00263772
8 *216:18 0.00223614
9 *216:22 *222:10 0.000272096
10 *1423:A *216:22 0.000295743
11 *1423:A *216:41 2.05571e-05
12 *1443:A *216:18 0
13 *1490:C *1416:C1 0.000135201
14 *1492:B *216:26 5.20249e-05
15 *1492:B *216:41 8.2745e-05
16 *1493:B *216:26 0.000327343
17 *1506:A1 *1416:C1 4.66108e-05
18 *1506:A2 *1416:C1 0.000118081
19 *1506:A2 *216:41 0.000231321
20 *1507:C *216:41 1.19928e-05
21 *1508:C *216:26 0
22 *1534:A *216:22 0.00205885
23 *1563:D *1416:C1 5.03838e-05
24 *1564:D *1416:C1 0.00314847
25 *1565:CLK *216:18 7.23533e-05
26 *1565:CLK *216:22 2.49909e-05
27 *1565:RESET_B *216:22 8.72749e-05
28 *1570:RESET_B *216:26 0.00011616
29 *1588:D *216:41 0.00197269
30 *1593:A *216:26 0
31 *36:20 *216:22 0.000145378
32 *43:26 *216:18 0
33 *70:10 *216:41 0.000485157
34 *130:38 *1416:C1 0.000374125
35 *156:25 *216:41 2.49909e-05
36 *169:8 *216:41 7.49114e-05
37 *181:10 *216:26 0
38 *181:16 *216:26 1.22591e-05
39 *181:18 *216:26 0.00028404
40 *181:18 *216:41 0.000318866
41 *181:24 *216:41 0.000210839
42 *191:8 *216:18 0
43 *196:37 *216:41 0.000243629
44 *199:28 *216:18 0.000712973
45 *199:36 *216:18 0.000546468
46 *206:26 *1416:C1 0.000317126
47 *212:38 *216:26 0.000356976
48 *212:63 *216:41 8.35118e-05
*RES
1 *1584:Q *216:18 27.3 
2 *216:18 *216:22 26.255 
3 *216:22 *216:26 32.96 
4 *216:26 *1507:A 1.6 
5 *216:26 *216:41 33.97 
6 *216:41 *1506:B1 1.6 
7 *216:41 *1416:C1 44.06 
*END

*D_NET *217 0.0290775
*CONN
*I *1509:A I *D sky130_fd_sc_hd__or2_1
*I *1514:A2 I *D sky130_fd_sc_hd__o211a_1
*I *1405:A I *D sky130_fd_sc_hd__inv_2
*I *1510:A I *D sky130_fd_sc_hd__nand2_1
*I *1585:Q O *D sky130_fd_sc_hd__dfrtp_4
*CAP
1 *1509:A 0.000734813
2 *1514:A2 0.000128452
3 *1405:A 0.00102061
4 *1510:A 0.000232885
5 *1585:Q 0.000648586
6 *217:29 0.00177718
7 *217:14 0.00241459
8 *217:12 0.00180353
9 *217:10 0.00163334
10 *1405:A *221:98 8.35106e-05
11 *217:14 *1601:A 0.000606362
12 *217:14 *218:22 0.000233004
13 *1428:A *217:29 0.000157325
14 *1448:A *1405:A 1.21256e-05
15 *1454:A *1405:A 2.77829e-05
16 *1454:A *217:29 0.000295813
17 *1477:B *1510:A 0.000372396
18 *1477:B *217:14 0.000498428
19 *1490:B *1514:A2 1.07797e-05
20 *1490:C *1514:A2 5.12942e-05
21 *1495:A *1509:A 0.000159896
22 *1498:A1 *1405:A 0.000130304
23 *1498:A1 *217:29 0.000274342
24 *1501:A *1509:A 0.000300844
25 *1509:B *1509:A 0.00105674
26 *1511:C *1510:A 0.000655132
27 *1514:A1 *1514:A2 0.000116853
28 *1514:A1 *217:12 4.82919e-05
29 *1514:A1 *217:14 0.000313852
30 *1517:D1 *1405:A 0.000532633
31 *1524:A2 *1405:A 8.35106e-05
32 *1558:A *1509:A 0.000237635
33 *1562:RESET_B *1509:A 0.000178683
34 *1582:D *1405:A 0.00086811
35 *1582:D *217:29 0.00010293
36 *1583:RESET_B *1509:A 2.49909e-05
37 *1585:CLK *217:10 8.49205e-05
38 *1585:D *1509:A 0
39 *1585:D *217:10 5.63713e-05
40 *1585:RESET_B *217:10 9.78516e-05
41 *1585:RESET_B *217:12 9.64037e-05
42 *1586:RESET_B *217:29 0.000113611
43 *34:24 *1405:A 0.000315539
44 *73:16 *217:12 2.96334e-05
45 *73:16 *217:14 0.000233815
46 *88:34 *1405:A 0.000482948
47 *96:12 *1405:A 0
48 *108:30 *1405:A 4.01548e-05
49 *115:56 *1514:A2 3.71698e-05
50 *149:25 *1405:A 0.0017903
51 *160:10 *1405:A 9.13009e-05
52 *183:16 *217:29 0.000713653
53 *183:22 *217:29 0.000655331
54 *184:14 *1509:A 0
55 *184:24 *1509:A 7.24582e-05
56 *184:24 *217:10 0.000189845
57 *184:24 *217:12 0.0001249
58 *185:20 *1405:A 0.00115901
59 *187:22 *1405:A 0.000142343
60 *201:14 *217:29 0.000301127
61 *207:30 *217:29 0.0020812
62 *212:75 *1510:A 0.000234669
63 *212:75 *217:14 0.00210543
*RES
1 *1585:Q *217:10 12.175 
2 *217:10 *217:12 4.59 
3 *217:12 *217:14 34.605 
4 *217:14 *1510:A 10.6 
5 *217:14 *217:29 31.4075 
6 *217:29 *1405:A 40.4175 
7 *217:12 *1514:A2 8.39 
8 *217:10 *1509:A 24.365 
*END

*D_NET *218 0.0126448
*CONN
*I *1601:A I *D sky130_fd_sc_hd__dlygate4sd3_1
*I *1417:B1_N I *D sky130_fd_sc_hd__a21bo_2
*I *1586:Q O *D sky130_fd_sc_hd__dfrtp_1
*CAP
1 *1601:A 0.000112566
2 *1417:B1_N 0.000627147
3 *1586:Q 0.00030202
4 *218:22 0.00189607
5 *218:10 0.00168351
6 *218:22 *1392:A 0.00014401
7 *218:22 *1441:A 0
8 *218:22 *223:35 0.000114655
9 *1417:A2 *1417:B1_N 0.00107155
10 *1489:A *1601:A 0.000308124
11 *1499:A *1417:B1_N 0.000246011
12 *1512:A *218:22 0.000964045
13 *1586:RESET_B *218:22 0.000104402
14 *1588:D *218:22 0.00010299
15 *23:18 *1417:B1_N 0.000836697
16 *66:28 *218:10 0
17 *73:16 *1601:A 0.000168227
18 *73:16 *218:22 0.00013493
19 *119:10 *218:22 0.00156153
20 *187:69 *218:22 0.000188886
21 *201:36 *218:22 7.48806e-05
22 *204:10 *218:22 1.45184e-05
23 *204:21 *218:22 7.75916e-05
24 *204:38 *218:22 5.12017e-06
25 *209:60 *218:10 0.00053698
26 *209:60 *218:22 0
27 *209:70 *218:22 0.000473577
28 *210:40 *218:22 5.54475e-05
29 *217:14 *1601:A 0.000606362
30 *217:14 *218:22 0.000233004
*RES
1 *1586:Q *218:10 12.08 
2 *218:10 *218:22 39.475 
3 *218:22 *1417:B1_N 18.5125 
4 *218:10 *1601:A 7.225 
*END

*D_NET *219 0.0265047
*CONN
*I *1425:A I *D sky130_fd_sc_hd__nand3_1
*I *1407:B I *D sky130_fd_sc_hd__and4_2
*I *1429:A1 I *D sky130_fd_sc_hd__a31o_1
*I *1426:B1 I *D sky130_fd_sc_hd__a21o_1
*I *1562:Q O *D sky130_fd_sc_hd__dfrtp_4
*CAP
1 *1425:A 0.000636681
2 *1407:B 0.000175318
3 *1429:A1 3.8591e-05
4 *1426:B1 0.000174132
5 *1562:Q 0.000260996
6 *219:49 0.00219774
7 *219:47 0.00162725
8 *219:34 0.000776493
9 *219:23 0.00179024
10 *219:8 0.00165179
11 *1425:A *1408:C 1.31297e-05
12 *219:34 *1429:B1 0.000295315
13 *219:47 *1429:B1 1.29317e-05
14 *219:49 *222:30 0.000166615
15 *1404:B1 *219:49 0.000107666
16 *1407:C *1407:B 4.66108e-05
17 *1425:B *1425:A 0.00129918
18 *1426:A1 *1426:B1 0.000290691
19 *1426:A1 *219:8 2.89143e-05
20 *1427:A *1425:A 0.000195856
21 *1459:C *1407:B 8.34281e-06
22 *1462:B *219:23 7.11365e-05
23 *1463:A *219:34 0.000175493
24 *1483:B *219:49 2.26509e-05
25 *1484:A2 *219:49 1.15688e-05
26 *1486:A4 *219:34 8.76201e-05
27 *1560:D *1426:B1 0.00011023
28 *1560:D *219:8 0.000470049
29 *65:20 *219:49 0.00102848
30 *67:12 *1407:B 8.52972e-05
31 *89:18 *219:49 0
32 *94:26 *1429:A1 0.000158564
33 *94:26 *219:23 0.000561642
34 *138:10 *219:49 0.00334542
35 *147:28 *219:34 0.000797884
36 *147:28 *219:47 0.000125142
37 *147:28 *219:49 0.000598981
38 *147:34 *219:34 0.000118782
39 *147:149 *219:49 6.64017e-05
40 *175:18 *219:49 0.00014037
41 *175:43 *219:49 0.00010969
42 *175:62 *219:49 0
43 *179:18 *219:49 0
44 *180:14 *1407:B 2.49909e-05
45 *180:29 *1407:B 1.43622e-05
46 *180:29 *219:47 6.62963e-05
47 *180:29 *219:49 0.00211985
48 *180:123 *219:49 0.000388316
49 *211:87 *219:8 0.000833881
50 *211:108 *1429:A1 8.83862e-05
51 *211:108 *219:23 0.0030887
*RES
1 *1562:Q *219:8 13.65 
2 *219:8 *1426:B1 7.98 
3 *219:8 *219:23 32.12 
4 *219:23 *1429:A1 3.085 
5 *219:23 *219:34 15.875 
6 *219:34 *1407:B 5.775 
7 *219:34 *219:47 1.9575 
8 *219:47 *219:49 54.0375 
9 *219:49 *1425:A 16.395 
*END

*D_NET *220 0.00920647
*CONN
*I *1407:A I *D sky130_fd_sc_hd__and4_2
*I *1429:B1 I *D sky130_fd_sc_hd__a31o_1
*I *1563:Q O *D sky130_fd_sc_hd__dfrtp_1
*CAP
1 *1407:A 0
2 *1429:B1 0.000484279
3 *1563:Q 0.00122408
4 *220:10 0.00170836
5 *1404:B1 *220:10 0.000998339
6 *1463:A *1429:B1 0.000109387
7 *1486:A4 *1429:B1 0.000139245
8 *1499:A *220:10 0.000914983
9 *1515:A *220:10 0.000217988
10 *93:51 *1429:B1 7.77167e-06
11 *93:51 *220:10 4.64292e-05
12 *147:34 *1429:B1 0.000214605
13 *180:14 *1429:B1 0.00118663
14 *180:29 *1429:B1 3.07136e-05
15 *180:29 *220:10 0.000342333
16 *190:31 *220:10 0.00127307
17 *219:34 *1429:B1 0.000295315
18 *219:47 *1429:B1 1.29317e-05
*RES
1 *1563:Q *220:10 31.815 
2 *220:10 *1429:B1 18.795 
3 *220:10 *1407:A 3.6 
*END

*D_NET *221 0.032813
*CONN
*I *1434:A I *D sky130_fd_sc_hd__or2_1
*I *1433:A I *D sky130_fd_sc_hd__nand2_1
*I *1408:D I *D sky130_fd_sc_hd__and4_1
*I *1438:B I *D sky130_fd_sc_hd__and3_1
*I *1437:A1 I *D sky130_fd_sc_hd__a21oi_1
*I *1564:Q O *D sky130_fd_sc_hd__dfrtp_4
*CAP
1 *1434:A 0
2 *1433:A 0.000166252
3 *1408:D 5.19518e-05
4 *1438:B 0.00012577
5 *1437:A1 0.0014426
6 *1564:Q 7.79656e-05
7 *221:98 0.000561718
8 *221:84 0.00427089
9 *221:45 0.00517683
10 *221:12 0.00312908
11 *221:8 0.00288812
12 *1408:D *1408:B 4.66108e-05
13 *1438:B *1438:A 4.93142e-05
14 *221:84 *222:30 0.000182327
15 *221:84 *227:26 5.07758e-05
16 *221:98 *1414:A1 3.09164e-05
17 an[4] *1437:A1 0.000163204
18 an[5] *1437:A1 4.82919e-05
19 an[6] *1437:A1 4.82919e-05
20 *1405:A *221:98 8.35106e-05
21 *1414:B1 *221:84 0
22 *1426:A2 *221:12 0.000113222
23 *1427:A *221:98 0.000186585
24 *1433:B *221:84 2.42043e-05
25 *1445:B1 *221:84 5.74686e-05
26 *1445:C1 *221:84 0.000638634
27 *1445:C1 *221:98 4.66108e-05
28 *1452:B *221:84 0.000451311
29 *1479:C *1433:A 0.000238405
30 *1479:C *221:98 0.000304809
31 *1487:C *221:84 0.000110156
32 *1524:A2 *221:98 0.000211386
33 *1538:A *221:84 4.66108e-05
34 *1551:A *221:12 0
35 *1564:RESET_B *221:84 0
36 *1566:RESET_B *221:84 0.00010725
37 *1579:RESET_B *221:12 0
38 *1579:RESET_B *221:45 0
39 *1580:RESET_B *1433:A 0.000122821
40 *1596:A *221:84 0.000583351
41 *1597:A *221:84 0.000567524
42 *1607:A *221:12 0
43 *1607:A *221:45 1.23518e-05
44 *56:26 *221:84 0
45 *77:14 *221:8 8.78289e-05
46 *77:14 *221:12 3.32209e-05
47 *87:26 *221:84 0.000177938
48 *95:82 *221:84 4.66108e-05
49 *96:8 *1408:D 0.000121026
50 *97:44 *221:98 0.000355201
51 *97:53 *221:98 3.09164e-05
52 *99:12 *221:45 0.000374726
53 *108:20 *221:45 9.08126e-05
54 *115:106 *221:98 0.000232726
55 *116:28 *1433:A 7.11365e-05
56 *122:30 *221:84 1.21092e-05
57 *129:64 *221:12 0.00051027
58 *129:66 *221:84 0.000672063
59 *154:12 *1437:A1 0.000923828
60 *180:143 *221:84 7.58797e-05
61 *181:10 *1433:A 0.0003565
62 *181:10 *221:98 0.000132821
63 *181:16 *221:98 0.000181919
64 *188:76 *221:84 1.37328e-05
65 *188:76 *221:98 5.83121e-06
66 *188:113 *221:84 0.000452519
67 *188:113 *221:98 6.03947e-06
68 *189:28 *221:84 0.000624103
69 *200:61 *221:12 0.00227918
70 *200:90 *221:8 0.000159156
71 *200:90 *221:45 0.000494268
72 *200:90 *221:84 0.000582658
73 *202:49 *221:84 0.000295031
74 *208:81 *221:84 0
75 *209:56 *1437:A1 0.000556228
76 *213:35 *221:84 0.00043963
*RES
1 *1564:Q *221:8 5.775 
2 *221:8 *221:12 39.335 
3 *221:12 *1437:A1 28.27 
4 *221:8 *221:45 21.605 
5 *221:45 *1438:B 3.085 
6 *221:45 *221:84 40.8507 
7 *221:84 *221:98 18.4688 
8 *221:98 *1408:D 4.74 
9 *221:98 *1433:A 9.18 
10 *221:84 *1434:A 1.6 
*END

*D_NET *222 0.0305422
*CONN
*I *1408:C I *D sky130_fd_sc_hd__and4_1
*I *1438:A I *D sky130_fd_sc_hd__and3_1
*I *1437:B1 I *D sky130_fd_sc_hd__a21oi_1
*I *1565:Q O *D sky130_fd_sc_hd__dfrtp_2
*CAP
1 *1408:C 0.000664777
2 *1438:A 0.00193413
3 *1437:B1 0.000281581
4 *1565:Q 0.00115061
5 *222:36 0.00174721
6 *222:34 0.00149628
7 *222:30 0.00384905
8 *222:10 0.00369966
9 *1438:A *1447:A 2.49909e-05
10 *222:10 *1444:A 0.000114283
11 *222:30 *224:12 1.79536e-05
12 *1399:A *1438:A 0.000469534
13 *1399:A *222:34 8.35106e-05
14 *1410:B *1438:A 0.000347522
15 *1425:A *1408:C 1.31297e-05
16 *1425:B *1408:C 4.40419e-05
17 *1425:C *1408:C 0.00111798
18 *1438:B *1438:A 4.93142e-05
19 *1438:C *1438:A 0.000206039
20 *1447:B *1438:A 4.41506e-05
21 *1481:A *222:30 0.000544989
22 *1502:A *222:36 0.00015346
23 *1505:A1 *222:30 0.000340859
24 *1505:A1 *222:36 0.000116216
25 *1565:RESET_B *222:10 0
26 *1566:RESET_B *222:30 1.90991e-05
27 *1577:RESET_B *1438:A 0.000310776
28 *1577:RESET_B *222:34 2.76356e-05
29 *1581:RESET_B *1408:C 0.000561185
30 *1593:A *222:30 0
31 *1596:A *222:30 0.000151329
32 *36:20 *222:10 0.000350101
33 *47:79 *222:30 0.000108076
34 *47:105 *222:30 0.000386117
35 *65:20 *222:30 0.000728458
36 *86:18 *222:30 1.79536e-05
37 *86:18 *222:36 0.00402896
38 *87:18 *222:36 2.3228e-05
39 *94:26 *222:36 0.00200847
40 *119:10 *1437:B1 0
41 *122:30 *222:36 0.000259227
42 *133:30 *222:30 0.000722298
43 *138:10 *222:10 7.1009e-05
44 *138:10 *222:30 1.96308e-05
45 *155:24 *222:36 0.00104231
46 *168:8 *222:10 0
47 *168:14 *222:10 0
48 *175:62 *222:30 5.64143e-05
49 *179:100 *222:10 0
50 *181:10 *1408:C 9.23635e-05
51 *185:45 *222:30 0.000107207
52 *191:72 *1408:C 0.000269299
53 *206:14 *1438:A 2.50702e-05
54 *206:26 *1438:A 2.36616e-05
55 *209:56 *1437:B1 0
56 *213:35 *222:10 0
57 *213:35 *222:30 0
58 *216:22 *222:10 0.000272096
59 *219:49 *222:30 0.000166615
60 *221:84 *222:30 0.000182327
*RES
1 *1565:Q *222:10 23.25 
2 *222:10 *222:30 18.9243 
3 *222:30 *222:34 2.795 
4 *222:34 *222:36 49.5525 
5 *222:36 *1437:B1 6.4875 
6 *222:30 *1438:A 28.69 
7 *222:10 *1408:C 23.32 
*END

*D_NET *223 0.0239308
*CONN
*I *1408:B I *D sky130_fd_sc_hd__and4_1
*I *1440:A I *D sky130_fd_sc_hd__or2_1
*I *1441:A I *D sky130_fd_sc_hd__nand2_1
*I *1566:Q O *D sky130_fd_sc_hd__dfrtp_2
*CAP
1 *1408:B 0.00171158
2 *1440:A 0.000470034
3 *1441:A 0.000222579
4 *1566:Q 0
5 *223:35 0.00476762
6 *223:6 0.00280859
7 *1408:B *1408:A 0.000729229
8 *1408:B *224:18 0.000762428
9 *1397:A *1440:A 0.000155601
10 *1397:B *1408:B 0.000227078
11 *1399:A *223:35 0.000173755
12 *1408:D *1408:B 4.66108e-05
13 *1416:A2 *223:35 4.13379e-05
14 *1425:B *1440:A 0.000193136
15 *1425:C *1440:A 0.00144231
16 *1442:B *1440:A 0.000845253
17 *1443:A *1408:B 8.19967e-05
18 *1443:A *223:35 7.86411e-05
19 *1445:B1 *223:35 0.000675673
20 *1447:B *223:35 0.000145954
21 *1449:A *223:35 1.32808e-05
22 *1466:A *1408:B 4.66108e-05
23 *1466:C *1408:B 1.70906e-05
24 *1467:A *1408:B 0.000119246
25 *1480:A *1408:B 0.000145857
26 *1480:A *223:35 0.00031074
27 *1502:A *223:35 0
28 *1567:D *223:35 0.00320665
29 *88:12 *1440:A 0.000308999
30 *96:8 *1408:B 5.99393e-05
31 *100:16 *223:35 0.000103539
32 *102:12 *223:35 0.000140709
33 *122:8 *1441:A 0.000271074
34 *134:8 *1440:A 7.67238e-05
35 *135:20 *223:35 2.96816e-05
36 *170:45 *1441:A 0.000272235
37 *176:47 *223:35 0.000412513
38 *182:18 *223:35 0.000105524
39 *182:48 *223:35 2.08568e-05
40 *187:69 *1441:A 0.000219897
41 *187:69 *223:35 0.000580912
42 *204:10 *223:35 0.000118628
43 *204:21 *223:35 1.0129e-05
44 *204:38 *223:35 0.000303305
45 *209:60 *1441:A 0.000408326
46 *209:60 *223:35 0.000934281
47 *218:22 *1441:A 0
48 *218:22 *223:35 0.000114655
*RES
1 *1566:Q *223:6 3.6 
2 *223:6 *1441:A 11.07 
3 *223:6 *223:35 26.4643 
4 *223:35 *1440:A 21.675 
5 *223:35 *1408:B 31.365 
*END

*D_NET *224 0.0197832
*CONN
*I *1408:A I *D sky130_fd_sc_hd__and4_1
*I *1444:A I *D sky130_fd_sc_hd__inv_2
*I *1567:Q O *D sky130_fd_sc_hd__dfrtp_2
*CAP
1 *1408:A 0.000564259
2 *1444:A 0.000212341
3 *1567:Q 0.000538587
4 *224:18 0.00171322
5 *224:12 0.0021802
6 *224:8 0.00178217
7 *224:18 *225:75 0.000282915
8 *1397:B *224:18 0.000987838
9 *1408:B *1408:A 0.000729229
10 *1408:B *224:18 0.000762428
11 *1419:A *224:12 0.00046394
12 *1445:A1 *1444:A 8.23457e-05
13 *1448:C *224:12 0.000321269
14 *1448:C *224:18 1.01945e-05
15 *1460:A *224:12 6.71803e-06
16 *1464:A1 *224:12 1.75056e-05
17 *1466:A *224:18 4.66108e-05
18 *1502:A *224:12 0.000200748
19 *1502:A *224:18 0.000200123
20 *1504:B *224:18 0.00014015
21 *1513:A1 *224:8 0.000277733
22 *1580:RESET_B *1444:A 0.000119242
23 *1594:A *224:12 2.20898e-05
24 *34:24 *1408:A 0.000412856
25 *34:24 *224:18 0.000555506
26 *86:18 *224:12 0.000156959
27 *87:18 *224:12 0.00289737
28 *87:26 *224:18 0.000158472
29 *96:8 *1408:A 4.66108e-05
30 *135:20 *224:12 0.00197759
31 *155:24 *224:18 0.000304889
32 *185:8 *224:18 0.000974981
33 *203:45 *224:12 1.54212e-05
34 *203:45 *224:18 0.000149604
35 *213:35 *1444:A 0.000338806
36 *222:10 *1444:A 0.000114283
37 *222:30 *224:12 1.79536e-05
*RES
1 *1567:Q *224:8 10.26 
2 *224:8 *224:12 41.3175 
3 *224:12 *224:18 33.5825 
4 *224:18 *1444:A 10.925 
5 *224:18 *1408:A 14.485 
*END

*D_NET *225 0.0259025
*CONN
*I *1450:A1 I *D sky130_fd_sc_hd__a21oi_2
*I *1414:A1 I *D sky130_fd_sc_hd__o31a_1
*I *1447:A I *D sky130_fd_sc_hd__nand2_1
*I *1451:B I *D sky130_fd_sc_hd__and4_4
*I *1446:A I *D sky130_fd_sc_hd__or2_1
*I *1568:Q O *D sky130_fd_sc_hd__dfrtp_4
*CAP
1 *1450:A1 0
2 *1414:A1 0.000652021
3 *1447:A 1.65033e-05
4 *1451:B 0.000933569
5 *1446:A 0
6 *1568:Q 0.00196435
7 *225:75 0.00210993
8 *225:30 0.00139504
9 *225:16 0.000531911
10 *225:14 0.00347619
11 *1451:B *1451:A 8.23457e-05
12 *225:75 *1450:B1 0.000119242
13 *1397:B *225:75 0.000681858
14 *1412:A_N *1451:B 2.2684e-05
15 *1414:A2 *1414:A1 0.000607702
16 *1414:A3 *1414:A1 0.000727801
17 *1414:B1 *1414:A1 0.000727801
18 *1417:A2 *1451:B 0.000148893
19 *1417:A2 *225:30 0.000159697
20 *1427:A *1414:A1 0.000134509
21 *1433:B *1414:A1 0.000507414
22 *1438:A *1447:A 2.49909e-05
23 *1441:B *1451:B 0.000915203
24 *1442:C *225:75 3.4724e-05
25 *1443:A *225:75 9.93127e-05
26 *1445:C1 *225:75 0.000193113
27 *1446:B *225:30 8.41307e-05
28 *1449:A *1451:B 9.24833e-05
29 *1464:A1 *225:16 6.73424e-05
30 *1464:A1 *225:30 6.92175e-05
31 *1464:A1 *225:75 9.06343e-05
32 *1471:C *1451:B 3.83194e-05
33 *1476:A2 *225:30 0.00029933
34 *1524:A2 *225:75 0.000402704
35 *1555:A *225:14 8.23457e-05
36 *1561:D *225:75 0
37 *1561:RESET_B *225:30 0.000300491
38 *1563:RESET_B *225:30 0.000682119
39 *1566:RESET_B *1451:B 4.11223e-05
40 *1568:CLK *225:14 0.000152833
41 *1568:D *1451:B 0.000149097
42 *1568:D *225:14 5.40469e-05
43 *1568:RESET_B *225:14 0.000156275
44 *1577:RESET_B *1447:A 4.66108e-05
45 *1581:RESET_B *1414:A1 0.000177522
46 *47:64 *225:30 9.30717e-05
47 *87:26 *225:75 0.000158472
48 *97:53 *1414:A1 1.07797e-05
49 *100:16 *225:30 0.000806521
50 *102:12 *225:75 0.000195436
51 *115:106 *225:75 0.000660696
52 *125:12 *1451:B 5.06989e-05
53 *125:12 *225:16 0.000132842
54 *125:12 *225:30 0.000263475
55 *125:12 *225:75 0.000587106
56 *139:33 *225:75 0.000583306
57 *165:16 *1451:B 2.51225e-05
58 *175:62 *225:75 4.41506e-05
59 *176:47 *225:14 0.000230435
60 *176:47 *225:75 0
61 *182:48 *225:75 0.000151845
62 *188:113 *225:75 0.000153816
63 *194:14 *225:14 0.00180996
64 *203:45 *225:75 0.00019409
65 *205:30 *1451:B 0
66 *205:61 *1451:B 0
67 *209:85 *225:75 0.000119666
68 *210:22 *1451:B 0
69 *210:22 *225:30 6.37482e-05
70 *221:98 *1414:A1 3.09164e-05
71 *224:18 *225:75 0.000282915
*RES
1 *1568:Q *225:14 33.165 
2 *225:14 *225:16 1.635 
3 *225:16 *225:30 22.8 
4 *225:30 *1446:A 1.6 
5 *225:30 *1451:B 22.775 
6 *225:16 *1447:A 4.05 
7 *225:14 *225:75 41.975 
8 *225:75 *1414:A1 26.9 
9 *225:75 *1450:A1 1.6 
*END

*D_NET *226 0.0219238
*CONN
*I *1411:C I *D sky130_fd_sc_hd__or4_2
*I *1451:A I *D sky130_fd_sc_hd__and4_4
*I *1450:B1 I *D sky130_fd_sc_hd__a21oi_2
*I *1569:Q O *D sky130_fd_sc_hd__dfrtp_2
*CAP
1 *1411:C 0.000536223
2 *1451:A 0.000481941
3 *1450:B1 0.000898382
4 *1569:Q 0.000732431
5 *226:31 0.0023343
6 *226:12 0.00294695
7 *1394:B *226:31 0.00016031
8 *1411:B *1411:C 0.000101392
9 *1416:A2 *1451:A 0.000209773
10 *1417:A2 *1451:A 0.000265448
11 *1449:A *1450:B1 0.000109379
12 *1451:B *1451:A 8.23457e-05
13 *1451:D *1451:A 0.000326429
14 *1454:B *1450:B1 0
15 *1471:C *1451:A 0.000192125
16 *1482:B *1411:C 5.03583e-05
17 *1499:B *1451:A 0.000655179
18 *1517:D1 *226:12 0.000263491
19 *1517:D1 *226:31 0.000208669
20 *1524:A2 *1450:B1 0.000119242
21 *1556:A *1411:C 0.000123977
22 *1568:D *1451:A 9.87041e-05
23 *1577:D *1411:C 0.000709641
24 *1577:RESET_B *1451:A 0.00014892
25 *1577:RESET_B *226:31 0.000128199
26 *1588:D *226:12 0.000259267
27 *1588:RESET_B *226:12 0.00016755
28 *42:8 *226:31 0.000998565
29 *47:39 *1451:A 0
30 *57:20 *226:31 0.00216712
31 *76:28 *1411:C 0.000392275
32 *92:16 *1450:B1 0.00102829
33 *129:35 *1451:A 0.000132178
34 *142:28 *1451:A 9.3849e-05
35 *146:12 *1450:B1 0.0023534
36 *180:143 *1450:B1 0.000157595
37 *181:51 *1411:C 0.000618185
38 *188:113 *1450:B1 5.04265e-05
39 *189:42 *226:12 0.000138127
40 *190:35 *226:31 5.54803e-05
41 *191:72 *1450:B1 0
42 *196:37 *1451:A 8.33066e-06
43 *196:37 *226:31 0.000228992
44 *202:20 *1411:C 0.000574497
45 *207:20 *1450:B1 0.000465157
46 *207:89 *1450:B1 4.36573e-06
47 *207:122 *1450:B1 2.70998e-05
48 *225:75 *1450:B1 0.000119242
*RES
1 *1569:Q *226:12 17.84 
2 *226:12 *1450:B1 34.895 
3 *226:12 *226:31 31.235 
4 *226:31 *1451:A 19.305 
5 *226:31 *1411:C 20.625 
*END

*D_NET *227 0.0312728
*CONN
*I *1401:A1 I *D sky130_fd_sc_hd__a21oi_1
*I *1398:A1_N I *D sky130_fd_sc_hd__o2bb2a_1
*I *1404:A1 I *D sky130_fd_sc_hd__a21oi_1
*I *1392:A I *D sky130_fd_sc_hd__and3_2
*I *1403:A1 I *D sky130_fd_sc_hd__a21oi_1
*I *1587:Q O *D sky130_fd_sc_hd__dfrtp_4
*CAP
1 *1401:A1 0.000178228
2 *1398:A1_N 0.00206936
3 *1404:A1 0.000241037
4 *1392:A 0.00130582
5 *1403:A1 0.000908333
6 *1587:Q 0.000977008
7 *227:89 0.00285343
8 *227:59 0.00217513
9 *227:53 0.00242645
10 *227:26 0.00307767
11 *1398:B2 *1398:A1_N 0.000401339
12 *1399:A *227:26 9.12494e-06
13 *1404:A2 *1404:A1 0.000220908
14 *1413:A_N *1403:A1 4.82863e-05
15 *1413:C *1403:A1 0.000179525
16 *1413:C *227:26 8.247e-05
17 *1413:D *1403:A1 1.93752e-05
18 *1413:D *227:26 5.19964e-05
19 *1414:B1 *1403:A1 2.69272e-05
20 *1416:B1 *227:53 5.28781e-05
21 *1424:A *227:26 9.82856e-06
22 *1445:B1 *227:26 0.000147916
23 *1459:C *227:53 0.000416902
24 *1459:C *227:59 0.000176647
25 *1463:A *227:53 0.000190181
26 *1467:A *227:53 0.00151902
27 *1476:A1 *227:53 0
28 *1476:A1 *227:59 0
29 *1490:B *1392:A 0.000976374
30 *1490:C *1392:A 0
31 *1494:B *1398:A1_N 0
32 *1499:A *1401:A1 8.39093e-05
33 *1502:A *1392:A 0.00030527
34 *1510:B *1398:A1_N 0
35 *1533:A *1398:A1_N 0.000832128
36 *1566:RESET_B *1392:A 1.25017e-06
37 *1567:RESET_B *1398:A1_N 5.03476e-05
38 *1570:RESET_B *1398:A1_N 0.000327355
39 *1573:D *227:53 9.96921e-05
40 *1573:RESET_B *1392:A 0.000817491
41 *1592:A *1398:A1_N 0.000808927
42 *1595:A *1392:A 0.000283243
43 *1599:A *227:26 5.28204e-05
44 *43:26 *1392:A 0
45 *47:33 *1392:A 0.000366219
46 *47:105 *227:26 1.8608e-05
47 *70:10 *1398:A1_N 0
48 *84:26 *1398:A1_N 0.000354235
49 *89:18 *227:53 0.000294714
50 *97:22 *227:53 3.9232e-05
51 *97:44 *1403:A1 6.52819e-05
52 *103:33 *227:53 7.74849e-05
53 *122:30 *227:26 0.000126764
54 *133:30 *1401:A1 2.15594e-05
55 *134:40 *227:53 0.000284976
56 *138:10 *227:53 0.00207073
57 *170:45 *1392:A 0.000116158
58 *175:18 *1401:A1 0
59 *176:47 *227:26 3.92878e-05
60 *185:20 *1403:A1 0.000164672
61 *187:14 *1403:A1 4.77719e-05
62 *187:50 *1401:A1 0.000131168
63 *187:61 *1404:A1 0.000118081
64 *187:61 *227:59 0.000701127
65 *187:117 *1403:A1 0.000519884
66 *190:69 *227:26 1.47807e-05
67 *193:28 *1392:A 0.000112123
68 *201:36 *1398:A1_N 0.00022218
69 *201:36 *227:89 0.000207571
70 *202:20 *227:53 0.00015639
71 *208:81 *227:26 0.000141397
72 *210:40 *1392:A 0.000142939
73 *212:30 *1403:A1 0.000118081
74 *212:75 *1398:A1_N 0
75 *218:22 *1392:A 0.00014401
76 *221:84 *227:26 5.07758e-05
*RES
1 *1587:Q *227:26 12.6953 
2 *227:26 *1403:A1 21.155 
3 *227:26 *227:53 41.625 
4 *227:53 *227:59 10.805 
5 *227:59 *1392:A 22.3221 
6 *227:59 *1404:A1 4.81 
7 *227:53 *227:89 9.005 
8 *227:89 *1398:A1_N 42.5187 
9 *227:89 *1401:A1 8.54 
*END
