*SPEF "ieee 1481-1999"
*DESIGN "ZeroToFiveCounter"
*DATE "19:36:13 Wednesday May 21, 2025"
*VENDOR "The OpenROAD Project"
*PROGRAM "OpenROAD"
*VERSION "b16bda7e82721d10566ff7e2b68f1ff0be9f9e38"
*DESIGN_FLOW "NAME_SCOPE LOCAL" "PIN_CAP NONE"
*DIVIDER /
*DELIMITER :
*BUS_DELIMITER []
*T_UNIT 1 NS
*C_UNIT 1 PF
*R_UNIT 1 OHM
*L_UNIT 1 HENRY

*NAME_MAP
*3 net10
*4 net11
*5 net12
*6 net13
*7 net14
*8 net15
*9 net16
*10 net9
*11 clk
*12 rst
*13 seg[0]
*14 seg[1]
*15 seg[2]
*16 seg[3]
*17 seg[4]
*18 seg[5]
*19 seg[6]
*20 _000_
*21 _001_
*22 _002_
*23 _003_
*24 _004_
*25 _005_
*26 _006_
*27 _007_
*28 _008_
*29 _009_
*30 _010_
*31 _011_
*32 _012_
*33 _013_
*34 _014_
*35 _015_
*36 _016_
*37 _017_
*38 _018_
*39 _019_
*40 _020_
*41 _021_
*42 _022_
*43 _023_
*44 _024_
*45 _025_
*46 _026_
*47 _027_
*48 _028_
*49 _029_
*50 _030_
*51 _031_
*52 _032_
*53 _033_
*54 _034_
*55 _035_
*56 _036_
*57 _037_
*58 _038_
*59 _039_
*60 _040_
*61 _041_
*62 _042_
*63 _043_
*64 _044_
*65 _045_
*66 _046_
*67 _047_
*68 _048_
*69 _049_
*70 _050_
*71 _051_
*72 _052_
*73 _053_
*74 _054_
*75 _055_
*76 _056_
*77 _057_
*78 _058_
*79 _059_
*80 _060_
*81 _061_
*82 _062_
*83 _063_
*84 _064_
*85 _065_
*86 _066_
*87 _067_
*88 _068_
*89 _069_
*90 _070_
*91 _071_
*92 _072_
*93 _073_
*94 _074_
*95 _075_
*96 _076_
*97 _077_
*98 _078_
*99 _079_
*100 _080_
*101 _081_
*102 _082_
*103 _083_
*104 _084_
*105 _085_
*106 _086_
*107 _087_
*108 _088_
*109 _089_
*110 _090_
*111 _091_
*112 _092_
*113 _093_
*114 _094_
*115 _095_
*116 _096_
*117 _097_
*118 _098_
*119 _099_
*120 _100_
*121 _101_
*122 _102_
*123 _103_
*124 _104_
*125 _105_
*126 _106_
*127 _107_
*128 _108_
*129 _109_
*130 _110_
*131 _111_
*132 _112_
*133 _113_
*134 _114_
*135 _115_
*136 _116_
*137 _117_
*138 _118_
*139 _119_
*140 _120_
*141 _121_
*142 _122_
*143 _123_
*144 _124_
*145 _125_
*146 _126_
*147 _127_
*148 _128_
*149 _129_
*150 _130_
*151 _131_
*152 _132_
*153 _133_
*154 _134_
*155 _135_
*156 _136_
*157 _137_
*158 _138_
*159 _139_
*160 _140_
*161 _141_
*162 _142_
*163 _143_
*164 _144_
*165 _145_
*166 _146_
*167 _147_
*168 _148_
*169 _149_
*170 _150_
*171 _151_
*172 _152_
*173 _153_
*174 _154_
*175 _155_
*176 _156_
*177 _157_
*178 _158_
*179 _159_
*180 _160_
*181 _161_
*182 clknet_0_clk
*183 clknet_2_0__leaf_clk
*184 clknet_2_1__leaf_clk
*185 clknet_2_2__leaf_clk
*186 clknet_2_3__leaf_clk
*187 decoder\.digit\[0\]
*188 decoder\.digit\[1\]
*189 decoder\.digit\[2\]
*190 decoder\.digit\[3\]
*191 net1
*192 net17
*193 net2
*194 net3
*195 net4
*196 net5
*197 net6
*198 net7
*199 net8
*200 one_second_counter\[0\]
*201 one_second_counter\[10\]
*202 one_second_counter\[11\]
*203 one_second_counter\[12\]
*204 one_second_counter\[13\]
*205 one_second_counter\[14\]
*206 one_second_counter\[15\]
*207 one_second_counter\[16\]
*208 one_second_counter\[17\]
*209 one_second_counter\[18\]
*210 one_second_counter\[19\]
*211 one_second_counter\[1\]
*212 one_second_counter\[20\]
*213 one_second_counter\[21\]
*214 one_second_counter\[22\]
*215 one_second_counter\[23\]
*216 one_second_counter\[24\]
*217 one_second_counter\[25\]
*218 one_second_counter\[26\]
*219 one_second_counter\[2\]
*220 one_second_counter\[3\]
*221 one_second_counter\[4\]
*222 one_second_counter\[5\]
*223 one_second_counter\[6\]
*224 one_second_counter\[7\]
*225 one_second_counter\[8\]
*226 one_second_counter\[9\]
*227 one_second_enable
*228 ANTENNA_1
*229 ANTENNA_2
*230 ANTENNA_3
*231 ANTENNA_4
*232 FILLER_0_0_104
*233 FILLER_0_0_116
*234 FILLER_0_0_128
*235 FILLER_0_0_136
*236 FILLER_0_0_141
*237 FILLER_0_0_153
*238 FILLER_0_0_161
*239 FILLER_0_0_167
*240 FILLER_0_0_169
*241 FILLER_0_0_18
*242 FILLER_0_0_181
*243 FILLER_0_0_26
*244 FILLER_0_0_32
*245 FILLER_0_0_6
*246 FILLER_0_0_67
*247 FILLER_0_0_73
*248 FILLER_0_0_82
*249 FILLER_0_0_88
*250 FILLER_0_10_109
*251 FILLER_0_10_134
*252 FILLER_0_10_141
*253 FILLER_0_10_15
*254 FILLER_0_10_153
*255 FILLER_0_10_165
*256 FILLER_0_10_173
*257 FILLER_0_10_178
*258 FILLER_0_10_21
*259 FILLER_0_10_25
*260 FILLER_0_10_3
*261 FILLER_0_10_32
*262 FILLER_0_10_44
*263 FILLER_0_10_56
*264 FILLER_0_10_66
*265 FILLER_0_10_83
*266 FILLER_0_10_85
*267 FILLER_0_10_97
*268 FILLER_0_11_100
*269 FILLER_0_11_113
*270 FILLER_0_11_144
*271 FILLER_0_11_15
*272 FILLER_0_11_150
*273 FILLER_0_11_156
*274 FILLER_0_11_169
*275 FILLER_0_11_181
*276 FILLER_0_11_189
*277 FILLER_0_11_27
*278 FILLER_0_11_3
*279 FILLER_0_11_39
*280 FILLER_0_11_51
*281 FILLER_0_11_55
*282 FILLER_0_11_57
*283 FILLER_0_11_64
*284 FILLER_0_11_76
*285 FILLER_0_11_88
*286 FILLER_0_12_105
*287 FILLER_0_12_117
*288 FILLER_0_12_129
*289 FILLER_0_12_138
*290 FILLER_0_12_141
*291 FILLER_0_12_15
*292 FILLER_0_12_153
*293 FILLER_0_12_157
*294 FILLER_0_12_169
*295 FILLER_0_12_181
*296 FILLER_0_12_189
*297 FILLER_0_12_27
*298 FILLER_0_12_29
*299 FILLER_0_12_3
*300 FILLER_0_12_41
*301 FILLER_0_12_77
*302 FILLER_0_12_83
*303 FILLER_0_13_113
*304 FILLER_0_13_15
*305 FILLER_0_13_162
*306 FILLER_0_13_169
*307 FILLER_0_13_184
*308 FILLER_0_13_27
*309 FILLER_0_13_3
*310 FILLER_0_13_39
*311 FILLER_0_13_51
*312 FILLER_0_13_55
*313 FILLER_0_13_57
*314 FILLER_0_13_69
*315 FILLER_0_13_81
*316 FILLER_0_13_89
*317 FILLER_0_14_109
*318 FILLER_0_14_121
*319 FILLER_0_14_127
*320 FILLER_0_14_146
*321 FILLER_0_14_15
*322 FILLER_0_14_150
*323 FILLER_0_14_162
*324 FILLER_0_14_174
*325 FILLER_0_14_186
*326 FILLER_0_14_27
*327 FILLER_0_14_29
*328 FILLER_0_14_3
*329 FILLER_0_14_41
*330 FILLER_0_14_53
*331 FILLER_0_14_61
*332 FILLER_0_14_71
*333 FILLER_0_14_83
*334 FILLER_0_14_85
*335 FILLER_0_14_97
*336 FILLER_0_15_105
*337 FILLER_0_15_111
*338 FILLER_0_15_121
*339 FILLER_0_15_133
*340 FILLER_0_15_144
*341 FILLER_0_15_15
*342 FILLER_0_15_156
*343 FILLER_0_15_174
*344 FILLER_0_15_186
*345 FILLER_0_15_27
*346 FILLER_0_15_3
*347 FILLER_0_15_39
*348 FILLER_0_15_51
*349 FILLER_0_15_55
*350 FILLER_0_15_57
*351 FILLER_0_15_69
*352 FILLER_0_15_81
*353 FILLER_0_15_93
*354 FILLER_0_16_109
*355 FILLER_0_16_121
*356 FILLER_0_16_133
*357 FILLER_0_16_139
*358 FILLER_0_16_141
*359 FILLER_0_16_15
*360 FILLER_0_16_152
*361 FILLER_0_16_164
*362 FILLER_0_16_176
*363 FILLER_0_16_180
*364 FILLER_0_16_27
*365 FILLER_0_16_29
*366 FILLER_0_16_3
*367 FILLER_0_16_44
*368 FILLER_0_16_56
*369 FILLER_0_16_68
*370 FILLER_0_16_80
*371 FILLER_0_16_85
*372 FILLER_0_16_97
*373 FILLER_0_17_105
*374 FILLER_0_17_111
*375 FILLER_0_17_113
*376 FILLER_0_17_119
*377 FILLER_0_17_127
*378 FILLER_0_17_139
*379 FILLER_0_17_15
*380 FILLER_0_17_151
*381 FILLER_0_17_163
*382 FILLER_0_17_167
*383 FILLER_0_17_169
*384 FILLER_0_17_181
*385 FILLER_0_17_189
*386 FILLER_0_17_21
*387 FILLER_0_17_3
*388 FILLER_0_17_33
*389 FILLER_0_17_41
*390 FILLER_0_17_46
*391 FILLER_0_17_54
*392 FILLER_0_17_57
*393 FILLER_0_17_69
*394 FILLER_0_17_81
*395 FILLER_0_17_93
*396 FILLER_0_18_109
*397 FILLER_0_18_121
*398 FILLER_0_18_133
*399 FILLER_0_18_139
*400 FILLER_0_18_141
*401 FILLER_0_18_15
*402 FILLER_0_18_152
*403 FILLER_0_18_160
*404 FILLER_0_18_188
*405 FILLER_0_18_27
*406 FILLER_0_18_29
*407 FILLER_0_18_3
*408 FILLER_0_18_41
*409 FILLER_0_18_53
*410 FILLER_0_18_60
*411 FILLER_0_18_72
*412 FILLER_0_18_85
*413 FILLER_0_18_97
*414 FILLER_0_19_100
*415 FILLER_0_19_113
*416 FILLER_0_19_121
*417 FILLER_0_19_133
*418 FILLER_0_19_139
*419 FILLER_0_19_15
*420 FILLER_0_19_163
*421 FILLER_0_19_167
*422 FILLER_0_19_169
*423 FILLER_0_19_181
*424 FILLER_0_19_189
*425 FILLER_0_19_23
*426 FILLER_0_19_3
*427 FILLER_0_19_34
*428 FILLER_0_19_46
*429 FILLER_0_19_54
*430 FILLER_0_19_57
*431 FILLER_0_19_88
*432 FILLER_0_1_102
*433 FILLER_0_1_110
*434 FILLER_0_1_113
*435 FILLER_0_1_136
*436 FILLER_0_1_148
*437 FILLER_0_1_15
*438 FILLER_0_1_160
*439 FILLER_0_1_175
*440 FILLER_0_1_183
*441 FILLER_0_1_27
*442 FILLER_0_1_3
*443 FILLER_0_1_54
*444 FILLER_0_1_57
*445 FILLER_0_1_69
*446 FILLER_0_1_81
*447 FILLER_0_1_93
*448 FILLER_0_20_103
*449 FILLER_0_20_124
*450 FILLER_0_20_136
*451 FILLER_0_20_141
*452 FILLER_0_20_149
*453 FILLER_0_20_15
*454 FILLER_0_20_155
*455 FILLER_0_20_180
*456 FILLER_0_20_184
*457 FILLER_0_20_27
*458 FILLER_0_20_29
*459 FILLER_0_20_3
*460 FILLER_0_20_41
*461 FILLER_0_20_53
*462 FILLER_0_20_67
*463 FILLER_0_20_79
*464 FILLER_0_20_83
*465 FILLER_0_20_85
*466 FILLER_0_20_97
*467 FILLER_0_21_105
*468 FILLER_0_21_111
*469 FILLER_0_21_113
*470 FILLER_0_21_121
*471 FILLER_0_21_127
*472 FILLER_0_21_135
*473 FILLER_0_21_141
*474 FILLER_0_21_153
*475 FILLER_0_21_162
*476 FILLER_0_21_169
*477 FILLER_0_21_177
*478 FILLER_0_21_187
*479 FILLER_0_21_3
*480 FILLER_0_21_36
*481 FILLER_0_21_42
*482 FILLER_0_21_46
*483 FILLER_0_21_54
*484 FILLER_0_21_57
*485 FILLER_0_21_69
*486 FILLER_0_21_81
*487 FILLER_0_21_93
*488 FILLER_0_22_100
*489 FILLER_0_22_110
*490 FILLER_0_22_122
*491 FILLER_0_22_131
*492 FILLER_0_22_139
*493 FILLER_0_22_144
*494 FILLER_0_22_15
*495 FILLER_0_22_156
*496 FILLER_0_22_178
*497 FILLER_0_22_27
*498 FILLER_0_22_29
*499 FILLER_0_22_3
*500 FILLER_0_22_41
*501 FILLER_0_22_53
*502 FILLER_0_22_65
*503 FILLER_0_22_75
*504 FILLER_0_22_83
*505 FILLER_0_22_88
*506 FILLER_0_23_113
*507 FILLER_0_23_125
*508 FILLER_0_23_149
*509 FILLER_0_23_15
*510 FILLER_0_23_161
*511 FILLER_0_23_167
*512 FILLER_0_23_169
*513 FILLER_0_23_181
*514 FILLER_0_23_185
*515 FILLER_0_23_27
*516 FILLER_0_23_3
*517 FILLER_0_23_39
*518 FILLER_0_23_51
*519 FILLER_0_23_55
*520 FILLER_0_23_57
*521 FILLER_0_23_69
*522 FILLER_0_23_81
*523 FILLER_0_23_89
*524 FILLER_0_24_108
*525 FILLER_0_24_120
*526 FILLER_0_24_132
*527 FILLER_0_24_141
*528 FILLER_0_24_15
*529 FILLER_0_24_153
*530 FILLER_0_24_165
*531 FILLER_0_24_177
*532 FILLER_0_24_189
*533 FILLER_0_24_27
*534 FILLER_0_24_29
*535 FILLER_0_24_3
*536 FILLER_0_24_35
*537 FILLER_0_24_42
*538 FILLER_0_24_48
*539 FILLER_0_24_52
*540 FILLER_0_24_60
*541 FILLER_0_24_68
*542 FILLER_0_24_76
*543 FILLER_0_24_80
*544 FILLER_0_24_85
*545 FILLER_0_24_96
*546 FILLER_0_25_104
*547 FILLER_0_25_110
*548 FILLER_0_25_113
*549 FILLER_0_25_125
*550 FILLER_0_25_137
*551 FILLER_0_25_141
*552 FILLER_0_25_149
*553 FILLER_0_25_15
*554 FILLER_0_25_161
*555 FILLER_0_25_167
*556 FILLER_0_25_169
*557 FILLER_0_25_175
*558 FILLER_0_25_187
*559 FILLER_0_25_27
*560 FILLER_0_25_3
*561 FILLER_0_25_60
*562 FILLER_0_25_68
*563 FILLER_0_25_72
*564 FILLER_0_25_84
*565 FILLER_0_25_96
*566 FILLER_0_26_109
*567 FILLER_0_26_121
*568 FILLER_0_26_133
*569 FILLER_0_26_139
*570 FILLER_0_26_141
*571 FILLER_0_26_15
*572 FILLER_0_26_153
*573 FILLER_0_26_161
*574 FILLER_0_26_27
*575 FILLER_0_26_29
*576 FILLER_0_26_3
*577 FILLER_0_26_41
*578 FILLER_0_26_46
*579 FILLER_0_26_58
*580 FILLER_0_26_70
*581 FILLER_0_26_82
*582 FILLER_0_26_85
*583 FILLER_0_26_97
*584 FILLER_0_27_105
*585 FILLER_0_27_111
*586 FILLER_0_27_113
*587 FILLER_0_27_125
*588 FILLER_0_27_137
*589 FILLER_0_27_149
*590 FILLER_0_27_15
*591 FILLER_0_27_157
*592 FILLER_0_27_163
*593 FILLER_0_27_167
*594 FILLER_0_27_169
*595 FILLER_0_27_181
*596 FILLER_0_27_27
*597 FILLER_0_27_3
*598 FILLER_0_27_39
*599 FILLER_0_27_51
*600 FILLER_0_27_55
*601 FILLER_0_27_57
*602 FILLER_0_27_69
*603 FILLER_0_27_75
*604 FILLER_0_27_87
*605 FILLER_0_27_99
*606 FILLER_0_28_109
*607 FILLER_0_28_121
*608 FILLER_0_28_129
*609 FILLER_0_28_137
*610 FILLER_0_28_141
*611 FILLER_0_28_153
*612 FILLER_0_28_165
*613 FILLER_0_28_177
*614 FILLER_0_28_185
*615 FILLER_0_28_189
*616 FILLER_0_28_21
*617 FILLER_0_28_27
*618 FILLER_0_28_3
*619 FILLER_0_28_32
*620 FILLER_0_28_44
*621 FILLER_0_28_56
*622 FILLER_0_28_68
*623 FILLER_0_28_76
*624 FILLER_0_28_81
*625 FILLER_0_28_85
*626 FILLER_0_28_9
*627 FILLER_0_28_97
*628 FILLER_0_29_105
*629 FILLER_0_29_111
*630 FILLER_0_29_113
*631 FILLER_0_29_125
*632 FILLER_0_29_13
*633 FILLER_0_29_137
*634 FILLER_0_29_149
*635 FILLER_0_29_161
*636 FILLER_0_29_167
*637 FILLER_0_29_169
*638 FILLER_0_29_173
*639 FILLER_0_29_179
*640 FILLER_0_29_183
*641 FILLER_0_29_189
*642 FILLER_0_29_3
*643 FILLER_0_29_38
*644 FILLER_0_29_50
*645 FILLER_0_29_57
*646 FILLER_0_29_69
*647 FILLER_0_29_7
*648 FILLER_0_29_81
*649 FILLER_0_29_93
*650 FILLER_0_2_109
*651 FILLER_0_2_121
*652 FILLER_0_2_133
*653 FILLER_0_2_139
*654 FILLER_0_2_141
*655 FILLER_0_2_15
*656 FILLER_0_2_166
*657 FILLER_0_2_178
*658 FILLER_0_2_187
*659 FILLER_0_2_27
*660 FILLER_0_2_29
*661 FILLER_0_2_3
*662 FILLER_0_2_41
*663 FILLER_0_2_53
*664 FILLER_0_2_65
*665 FILLER_0_2_77
*666 FILLER_0_2_83
*667 FILLER_0_2_85
*668 FILLER_0_2_97
*669 FILLER_0_30_119
*670 FILLER_0_30_126
*671 FILLER_0_30_132
*672 FILLER_0_30_139
*673 FILLER_0_30_141
*674 FILLER_0_30_15
*675 FILLER_0_30_153
*676 FILLER_0_30_165
*677 FILLER_0_30_177
*678 FILLER_0_30_189
*679 FILLER_0_30_27
*680 FILLER_0_30_3
*681 FILLER_0_30_35
*682 FILLER_0_30_47
*683 FILLER_0_30_56
*684 FILLER_0_30_68
*685 FILLER_0_30_78
*686 FILLER_0_30_85
*687 FILLER_0_31_110
*688 FILLER_0_31_113
*689 FILLER_0_31_121
*690 FILLER_0_31_129
*691 FILLER_0_31_15
*692 FILLER_0_31_155
*693 FILLER_0_31_167
*694 FILLER_0_31_169
*695 FILLER_0_31_181
*696 FILLER_0_31_185
*697 FILLER_0_31_27
*698 FILLER_0_31_3
*699 FILLER_0_31_39
*700 FILLER_0_31_51
*701 FILLER_0_31_55
*702 FILLER_0_31_57
*703 FILLER_0_31_69
*704 FILLER_0_31_79
*705 FILLER_0_31_87
*706 FILLER_0_31_98
*707 FILLER_0_32_109
*708 FILLER_0_32_121
*709 FILLER_0_32_133
*710 FILLER_0_32_139
*711 FILLER_0_32_141
*712 FILLER_0_32_15
*713 FILLER_0_32_153
*714 FILLER_0_32_165
*715 FILLER_0_32_171
*716 FILLER_0_32_183
*717 FILLER_0_32_189
*718 FILLER_0_32_27
*719 FILLER_0_32_29
*720 FILLER_0_32_3
*721 FILLER_0_32_38
*722 FILLER_0_32_48
*723 FILLER_0_32_60
*724 FILLER_0_32_72
*725 FILLER_0_32_85
*726 FILLER_0_33_105
*727 FILLER_0_33_111
*728 FILLER_0_33_113
*729 FILLER_0_33_125
*730 FILLER_0_33_15
*731 FILLER_0_33_151
*732 FILLER_0_33_163
*733 FILLER_0_33_167
*734 FILLER_0_33_169
*735 FILLER_0_33_181
*736 FILLER_0_33_189
*737 FILLER_0_33_27
*738 FILLER_0_33_3
*739 FILLER_0_33_39
*740 FILLER_0_33_51
*741 FILLER_0_33_55
*742 FILLER_0_33_57
*743 FILLER_0_33_69
*744 FILLER_0_33_81
*745 FILLER_0_33_93
*746 FILLER_0_34_102
*747 FILLER_0_34_114
*748 FILLER_0_34_126
*749 FILLER_0_34_138
*750 FILLER_0_34_14
*751 FILLER_0_34_141
*752 FILLER_0_34_153
*753 FILLER_0_34_165
*754 FILLER_0_34_177
*755 FILLER_0_34_189
*756 FILLER_0_34_26
*757 FILLER_0_34_29
*758 FILLER_0_34_3
*759 FILLER_0_34_41
*760 FILLER_0_34_49
*761 FILLER_0_34_58
*762 FILLER_0_34_70
*763 FILLER_0_34_82
*764 FILLER_0_34_85
*765 FILLER_0_34_93
*766 FILLER_0_35_104
*767 FILLER_0_35_111
*768 FILLER_0_35_113
*769 FILLER_0_35_125
*770 FILLER_0_35_137
*771 FILLER_0_35_149
*772 FILLER_0_35_15
*773 FILLER_0_35_161
*774 FILLER_0_35_167
*775 FILLER_0_35_169
*776 FILLER_0_35_181
*777 FILLER_0_35_189
*778 FILLER_0_35_21
*779 FILLER_0_35_3
*780 FILLER_0_35_33
*781 FILLER_0_35_41
*782 FILLER_0_35_51
*783 FILLER_0_35_55
*784 FILLER_0_35_60
*785 FILLER_0_35_72
*786 FILLER_0_35_84
*787 FILLER_0_35_88
*788 FILLER_0_35_92
*789 FILLER_0_36_110
*790 FILLER_0_36_114
*791 FILLER_0_36_120
*792 FILLER_0_36_128
*793 FILLER_0_36_141
*794 FILLER_0_36_149
*795 FILLER_0_36_15
*796 FILLER_0_36_155
*797 FILLER_0_36_167
*798 FILLER_0_36_179
*799 FILLER_0_36_187
*800 FILLER_0_36_27
*801 FILLER_0_36_29
*802 FILLER_0_36_3
*803 FILLER_0_36_38
*804 FILLER_0_36_46
*805 FILLER_0_36_58
*806 FILLER_0_36_70
*807 FILLER_0_36_82
*808 FILLER_0_36_85
*809 FILLER_0_36_98
*810 FILLER_0_37_105
*811 FILLER_0_37_111
*812 FILLER_0_37_113
*813 FILLER_0_37_125
*814 FILLER_0_37_137
*815 FILLER_0_37_149
*816 FILLER_0_37_15
*817 FILLER_0_37_157
*818 FILLER_0_37_164
*819 FILLER_0_37_175
*820 FILLER_0_37_183
*821 FILLER_0_37_189
*822 FILLER_0_37_27
*823 FILLER_0_37_3
*824 FILLER_0_37_42
*825 FILLER_0_37_46
*826 FILLER_0_37_51
*827 FILLER_0_37_55
*828 FILLER_0_37_57
*829 FILLER_0_37_69
*830 FILLER_0_37_81
*831 FILLER_0_37_93
*832 FILLER_0_38_101
*833 FILLER_0_38_107
*834 FILLER_0_38_119
*835 FILLER_0_38_131
*836 FILLER_0_38_139
*837 FILLER_0_38_141
*838 FILLER_0_38_15
*839 FILLER_0_38_153
*840 FILLER_0_38_157
*841 FILLER_0_38_181
*842 FILLER_0_38_185
*843 FILLER_0_38_27
*844 FILLER_0_38_29
*845 FILLER_0_38_3
*846 FILLER_0_38_42
*847 FILLER_0_38_54
*848 FILLER_0_38_66
*849 FILLER_0_38_78
*850 FILLER_0_38_85
*851 FILLER_0_38_93
*852 FILLER_0_39_104
*853 FILLER_0_39_110
*854 FILLER_0_39_113
*855 FILLER_0_39_125
*856 FILLER_0_39_136
*857 FILLER_0_39_148
*858 FILLER_0_39_16
*859 FILLER_0_39_160
*860 FILLER_0_39_169
*861 FILLER_0_39_181
*862 FILLER_0_39_189
*863 FILLER_0_39_24
*864 FILLER_0_39_3
*865 FILLER_0_39_36
*866 FILLER_0_39_48
*867 FILLER_0_39_57
*868 FILLER_0_39_72
*869 FILLER_0_39_84
*870 FILLER_0_39_9
*871 FILLER_0_39_96
*872 FILLER_0_3_106
*873 FILLER_0_3_11
*874 FILLER_0_3_113
*875 FILLER_0_3_125
*876 FILLER_0_3_129
*877 FILLER_0_3_135
*878 FILLER_0_3_147
*879 FILLER_0_3_159
*880 FILLER_0_3_167
*881 FILLER_0_3_169
*882 FILLER_0_3_181
*883 FILLER_0_3_189
*884 FILLER_0_3_3
*885 FILLER_0_3_37
*886 FILLER_0_3_45
*887 FILLER_0_3_52
*888 FILLER_0_3_57
*889 FILLER_0_3_69
*890 FILLER_0_3_82
*891 FILLER_0_3_94
*892 FILLER_0_40_106
*893 FILLER_0_40_133
*894 FILLER_0_40_139
*895 FILLER_0_40_141
*896 FILLER_0_40_15
*897 FILLER_0_40_153
*898 FILLER_0_40_165
*899 FILLER_0_40_173
*900 FILLER_0_40_179
*901 FILLER_0_40_187
*902 FILLER_0_40_27
*903 FILLER_0_40_29
*904 FILLER_0_40_3
*905 FILLER_0_40_41
*906 FILLER_0_40_46
*907 FILLER_0_40_58
*908 FILLER_0_40_70
*909 FILLER_0_40_77
*910 FILLER_0_40_83
*911 FILLER_0_40_85
*912 FILLER_0_40_94
*913 FILLER_0_41_106
*914 FILLER_0_41_113
*915 FILLER_0_41_125
*916 FILLER_0_41_137
*917 FILLER_0_41_149
*918 FILLER_0_41_155
*919 FILLER_0_41_160
*920 FILLER_0_41_18
*921 FILLER_0_41_181
*922 FILLER_0_41_189
*923 FILLER_0_41_3
*924 FILLER_0_41_30
*925 FILLER_0_41_42
*926 FILLER_0_41_54
*927 FILLER_0_41_57
*928 FILLER_0_41_70
*929 FILLER_0_41_82
*930 FILLER_0_41_94
*931 FILLER_0_42_109
*932 FILLER_0_42_121
*933 FILLER_0_42_129
*934 FILLER_0_42_134
*935 FILLER_0_42_141
*936 FILLER_0_42_15
*937 FILLER_0_42_153
*938 FILLER_0_42_189
*939 FILLER_0_42_27
*940 FILLER_0_42_29
*941 FILLER_0_42_3
*942 FILLER_0_42_35
*943 FILLER_0_42_68
*944 FILLER_0_42_80
*945 FILLER_0_42_85
*946 FILLER_0_42_97
*947 FILLER_0_43_105
*948 FILLER_0_43_111
*949 FILLER_0_43_113
*950 FILLER_0_43_125
*951 FILLER_0_43_137
*952 FILLER_0_43_149
*953 FILLER_0_43_15
*954 FILLER_0_43_161
*955 FILLER_0_43_167
*956 FILLER_0_43_169
*957 FILLER_0_43_176
*958 FILLER_0_43_188
*959 FILLER_0_43_27
*960 FILLER_0_43_3
*961 FILLER_0_43_37
*962 FILLER_0_43_49
*963 FILLER_0_43_55
*964 FILLER_0_43_57
*965 FILLER_0_43_69
*966 FILLER_0_43_81
*967 FILLER_0_43_93
*968 FILLER_0_44_104
*969 FILLER_0_44_112
*970 FILLER_0_44_116
*971 FILLER_0_44_124
*972 FILLER_0_44_129
*973 FILLER_0_44_137
*974 FILLER_0_44_141
*975 FILLER_0_44_15
*976 FILLER_0_44_153
*977 FILLER_0_44_157
*978 FILLER_0_44_161
*979 FILLER_0_44_169
*980 FILLER_0_44_175
*981 FILLER_0_44_187
*982 FILLER_0_44_27
*983 FILLER_0_44_29
*984 FILLER_0_44_3
*985 FILLER_0_44_41
*986 FILLER_0_44_53
*987 FILLER_0_44_65
*988 FILLER_0_44_77
*989 FILLER_0_44_83
*990 FILLER_0_44_85
*991 FILLER_0_44_92
*992 FILLER_0_45_116
*993 FILLER_0_45_124
*994 FILLER_0_45_148
*995 FILLER_0_45_15
*996 FILLER_0_45_160
*997 FILLER_0_45_169
*998 FILLER_0_45_181
*999 FILLER_0_45_184
*1000 FILLER_0_45_27
*1001 FILLER_0_45_3
*1002 FILLER_0_45_35
*1003 FILLER_0_45_40
*1004 FILLER_0_45_52
*1005 FILLER_0_45_57
*1006 FILLER_0_45_69
*1007 FILLER_0_45_81
*1008 FILLER_0_45_89
*1009 FILLER_0_46_109
*1010 FILLER_0_46_113
*1011 FILLER_0_46_125
*1012 FILLER_0_46_137
*1013 FILLER_0_46_141
*1014 FILLER_0_46_149
*1015 FILLER_0_46_15
*1016 FILLER_0_46_157
*1017 FILLER_0_46_165
*1018 FILLER_0_46_169
*1019 FILLER_0_46_188
*1020 FILLER_0_46_27
*1021 FILLER_0_46_29
*1022 FILLER_0_46_3
*1023 FILLER_0_46_41
*1024 FILLER_0_46_53
*1025 FILLER_0_46_57
*1026 FILLER_0_46_69
*1027 FILLER_0_46_81
*1028 FILLER_0_46_85
*1029 FILLER_0_46_97
*1030 FILLER_0_4_109
*1031 FILLER_0_4_121
*1032 FILLER_0_4_126
*1033 FILLER_0_4_141
*1034 FILLER_0_4_15
*1035 FILLER_0_4_153
*1036 FILLER_0_4_165
*1037 FILLER_0_4_24
*1038 FILLER_0_4_29
*1039 FILLER_0_4_3
*1040 FILLER_0_4_41
*1041 FILLER_0_4_53
*1042 FILLER_0_4_65
*1043 FILLER_0_4_77
*1044 FILLER_0_4_83
*1045 FILLER_0_4_85
*1046 FILLER_0_4_97
*1047 FILLER_0_5_104
*1048 FILLER_0_5_11
*1049 FILLER_0_5_113
*1050 FILLER_0_5_125
*1051 FILLER_0_5_137
*1052 FILLER_0_5_153
*1053 FILLER_0_5_165
*1054 FILLER_0_5_169
*1055 FILLER_0_5_181
*1056 FILLER_0_5_189
*1057 FILLER_0_5_20
*1058 FILLER_0_5_3
*1059 FILLER_0_5_32
*1060 FILLER_0_5_44
*1061 FILLER_0_5_57
*1062 FILLER_0_5_69
*1063 FILLER_0_5_81
*1064 FILLER_0_5_93
*1065 FILLER_0_6_109
*1066 FILLER_0_6_121
*1067 FILLER_0_6_133
*1068 FILLER_0_6_139
*1069 FILLER_0_6_141
*1070 FILLER_0_6_145
*1071 FILLER_0_6_157
*1072 FILLER_0_6_169
*1073 FILLER_0_6_181
*1074 FILLER_0_6_189
*1075 FILLER_0_6_19
*1076 FILLER_0_6_27
*1077 FILLER_0_6_29
*1078 FILLER_0_6_3
*1079 FILLER_0_6_40
*1080 FILLER_0_6_48
*1081 FILLER_0_6_55
*1082 FILLER_0_6_67
*1083 FILLER_0_6_71
*1084 FILLER_0_6_78
*1085 FILLER_0_6_85
*1086 FILLER_0_6_97
*1087 FILLER_0_7_105
*1088 FILLER_0_7_111
*1089 FILLER_0_7_113
*1090 FILLER_0_7_119
*1091 FILLER_0_7_141
*1092 FILLER_0_7_147
*1093 FILLER_0_7_15
*1094 FILLER_0_7_154
*1095 FILLER_0_7_166
*1096 FILLER_0_7_169
*1097 FILLER_0_7_183
*1098 FILLER_0_7_189
*1099 FILLER_0_7_27
*1100 FILLER_0_7_3
*1101 FILLER_0_7_39
*1102 FILLER_0_7_51
*1103 FILLER_0_7_55
*1104 FILLER_0_7_57
*1105 FILLER_0_7_69
*1106 FILLER_0_7_81
*1107 FILLER_0_7_93
*1108 FILLER_0_8_109
*1109 FILLER_0_8_124
*1110 FILLER_0_8_136
*1111 FILLER_0_8_141
*1112 FILLER_0_8_147
*1113 FILLER_0_8_15
*1114 FILLER_0_8_171
*1115 FILLER_0_8_183
*1116 FILLER_0_8_27
*1117 FILLER_0_8_3
*1118 FILLER_0_8_49
*1119 FILLER_0_8_61
*1120 FILLER_0_8_73
*1121 FILLER_0_8_81
*1122 FILLER_0_8_85
*1123 FILLER_0_8_97
*1124 FILLER_0_9_105
*1125 FILLER_0_9_111
*1126 FILLER_0_9_113
*1127 FILLER_0_9_119
*1128 FILLER_0_9_125
*1129 FILLER_0_9_141
*1130 FILLER_0_9_15
*1131 FILLER_0_9_153
*1132 FILLER_0_9_165
*1133 FILLER_0_9_189
*1134 FILLER_0_9_27
*1135 FILLER_0_9_3
*1136 FILLER_0_9_39
*1137 FILLER_0_9_51
*1138 FILLER_0_9_55
*1139 FILLER_0_9_57
*1140 FILLER_0_9_69
*1141 FILLER_0_9_81
*1142 FILLER_0_9_93
*1143 PHY_EDGE_ROW_0_Left_47
*1144 PHY_EDGE_ROW_0_Right_0
*1145 PHY_EDGE_ROW_10_Left_57
*1146 PHY_EDGE_ROW_10_Right_10
*1147 PHY_EDGE_ROW_11_Left_58
*1148 PHY_EDGE_ROW_11_Right_11
*1149 PHY_EDGE_ROW_12_Left_59
*1150 PHY_EDGE_ROW_12_Right_12
*1151 PHY_EDGE_ROW_13_Left_60
*1152 PHY_EDGE_ROW_13_Right_13
*1153 PHY_EDGE_ROW_14_Left_61
*1154 PHY_EDGE_ROW_14_Right_14
*1155 PHY_EDGE_ROW_15_Left_62
*1156 PHY_EDGE_ROW_15_Right_15
*1157 PHY_EDGE_ROW_16_Left_63
*1158 PHY_EDGE_ROW_16_Right_16
*1159 PHY_EDGE_ROW_17_Left_64
*1160 PHY_EDGE_ROW_17_Right_17
*1161 PHY_EDGE_ROW_18_Left_65
*1162 PHY_EDGE_ROW_18_Right_18
*1163 PHY_EDGE_ROW_19_Left_66
*1164 PHY_EDGE_ROW_19_Right_19
*1165 PHY_EDGE_ROW_1_Left_48
*1166 PHY_EDGE_ROW_1_Right_1
*1167 PHY_EDGE_ROW_20_Left_67
*1168 PHY_EDGE_ROW_20_Right_20
*1169 PHY_EDGE_ROW_21_Left_68
*1170 PHY_EDGE_ROW_21_Right_21
*1171 PHY_EDGE_ROW_22_Left_69
*1172 PHY_EDGE_ROW_22_Right_22
*1173 PHY_EDGE_ROW_23_Left_70
*1174 PHY_EDGE_ROW_23_Right_23
*1175 PHY_EDGE_ROW_24_Left_71
*1176 PHY_EDGE_ROW_24_Right_24
*1177 PHY_EDGE_ROW_25_Left_72
*1178 PHY_EDGE_ROW_25_Right_25
*1179 PHY_EDGE_ROW_26_Left_73
*1180 PHY_EDGE_ROW_26_Right_26
*1181 PHY_EDGE_ROW_27_Left_74
*1182 PHY_EDGE_ROW_27_Right_27
*1183 PHY_EDGE_ROW_28_Left_75
*1184 PHY_EDGE_ROW_28_Right_28
*1185 PHY_EDGE_ROW_29_Left_76
*1186 PHY_EDGE_ROW_29_Right_29
*1187 PHY_EDGE_ROW_2_Left_49
*1188 PHY_EDGE_ROW_2_Right_2
*1189 PHY_EDGE_ROW_30_Left_77
*1190 PHY_EDGE_ROW_30_Right_30
*1191 PHY_EDGE_ROW_31_Left_78
*1192 PHY_EDGE_ROW_31_Right_31
*1193 PHY_EDGE_ROW_32_Left_79
*1194 PHY_EDGE_ROW_32_Right_32
*1195 PHY_EDGE_ROW_33_Left_80
*1196 PHY_EDGE_ROW_33_Right_33
*1197 PHY_EDGE_ROW_34_Left_81
*1198 PHY_EDGE_ROW_34_Right_34
*1199 PHY_EDGE_ROW_35_Left_82
*1200 PHY_EDGE_ROW_35_Right_35
*1201 PHY_EDGE_ROW_36_Left_83
*1202 PHY_EDGE_ROW_36_Right_36
*1203 PHY_EDGE_ROW_37_Left_84
*1204 PHY_EDGE_ROW_37_Right_37
*1205 PHY_EDGE_ROW_38_Left_85
*1206 PHY_EDGE_ROW_38_Right_38
*1207 PHY_EDGE_ROW_39_Left_86
*1208 PHY_EDGE_ROW_39_Right_39
*1209 PHY_EDGE_ROW_3_Left_50
*1210 PHY_EDGE_ROW_3_Right_3
*1211 PHY_EDGE_ROW_40_Left_87
*1212 PHY_EDGE_ROW_40_Right_40
*1213 PHY_EDGE_ROW_41_Left_88
*1214 PHY_EDGE_ROW_41_Right_41
*1215 PHY_EDGE_ROW_42_Left_89
*1216 PHY_EDGE_ROW_42_Right_42
*1217 PHY_EDGE_ROW_43_Left_90
*1218 PHY_EDGE_ROW_43_Right_43
*1219 PHY_EDGE_ROW_44_Left_91
*1220 PHY_EDGE_ROW_44_Right_44
*1221 PHY_EDGE_ROW_45_Left_92
*1222 PHY_EDGE_ROW_45_Right_45
*1223 PHY_EDGE_ROW_46_Left_93
*1224 PHY_EDGE_ROW_46_Right_46
*1225 PHY_EDGE_ROW_4_Left_51
*1226 PHY_EDGE_ROW_4_Right_4
*1227 PHY_EDGE_ROW_5_Left_52
*1228 PHY_EDGE_ROW_5_Right_5
*1229 PHY_EDGE_ROW_6_Left_53
*1230 PHY_EDGE_ROW_6_Right_6
*1231 PHY_EDGE_ROW_7_Left_54
*1232 PHY_EDGE_ROW_7_Right_7
*1233 PHY_EDGE_ROW_8_Left_55
*1234 PHY_EDGE_ROW_8_Right_8
*1235 PHY_EDGE_ROW_9_Left_56
*1236 PHY_EDGE_ROW_9_Right_9
*1237 TAP_TAPCELL_ROW_0_94
*1238 TAP_TAPCELL_ROW_0_95
*1239 TAP_TAPCELL_ROW_0_96
*1240 TAP_TAPCELL_ROW_0_97
*1241 TAP_TAPCELL_ROW_0_98
*1242 TAP_TAPCELL_ROW_0_99
*1243 TAP_TAPCELL_ROW_10_127
*1244 TAP_TAPCELL_ROW_10_128
*1245 TAP_TAPCELL_ROW_10_129
*1246 TAP_TAPCELL_ROW_11_130
*1247 TAP_TAPCELL_ROW_11_131
*1248 TAP_TAPCELL_ROW_11_132
*1249 TAP_TAPCELL_ROW_12_133
*1250 TAP_TAPCELL_ROW_12_134
*1251 TAP_TAPCELL_ROW_12_135
*1252 TAP_TAPCELL_ROW_13_136
*1253 TAP_TAPCELL_ROW_13_137
*1254 TAP_TAPCELL_ROW_13_138
*1255 TAP_TAPCELL_ROW_14_139
*1256 TAP_TAPCELL_ROW_14_140
*1257 TAP_TAPCELL_ROW_14_141
*1258 TAP_TAPCELL_ROW_15_142
*1259 TAP_TAPCELL_ROW_15_143
*1260 TAP_TAPCELL_ROW_15_144
*1261 TAP_TAPCELL_ROW_16_145
*1262 TAP_TAPCELL_ROW_16_146
*1263 TAP_TAPCELL_ROW_16_147
*1264 TAP_TAPCELL_ROW_17_148
*1265 TAP_TAPCELL_ROW_17_149
*1266 TAP_TAPCELL_ROW_17_150
*1267 TAP_TAPCELL_ROW_18_151
*1268 TAP_TAPCELL_ROW_18_152
*1269 TAP_TAPCELL_ROW_18_153
*1270 TAP_TAPCELL_ROW_19_154
*1271 TAP_TAPCELL_ROW_19_155
*1272 TAP_TAPCELL_ROW_19_156
*1273 TAP_TAPCELL_ROW_1_100
*1274 TAP_TAPCELL_ROW_1_101
*1275 TAP_TAPCELL_ROW_1_102
*1276 TAP_TAPCELL_ROW_20_157
*1277 TAP_TAPCELL_ROW_20_158
*1278 TAP_TAPCELL_ROW_20_159
*1279 TAP_TAPCELL_ROW_21_160
*1280 TAP_TAPCELL_ROW_21_161
*1281 TAP_TAPCELL_ROW_21_162
*1282 TAP_TAPCELL_ROW_22_163
*1283 TAP_TAPCELL_ROW_22_164
*1284 TAP_TAPCELL_ROW_22_165
*1285 TAP_TAPCELL_ROW_23_166
*1286 TAP_TAPCELL_ROW_23_167
*1287 TAP_TAPCELL_ROW_23_168
*1288 TAP_TAPCELL_ROW_24_169
*1289 TAP_TAPCELL_ROW_24_170
*1290 TAP_TAPCELL_ROW_24_171
*1291 TAP_TAPCELL_ROW_25_172
*1292 TAP_TAPCELL_ROW_25_173
*1293 TAP_TAPCELL_ROW_25_174
*1294 TAP_TAPCELL_ROW_26_175
*1295 TAP_TAPCELL_ROW_26_176
*1296 TAP_TAPCELL_ROW_26_177
*1297 TAP_TAPCELL_ROW_27_178
*1298 TAP_TAPCELL_ROW_27_179
*1299 TAP_TAPCELL_ROW_27_180
*1300 TAP_TAPCELL_ROW_28_181
*1301 TAP_TAPCELL_ROW_28_182
*1302 TAP_TAPCELL_ROW_28_183
*1303 TAP_TAPCELL_ROW_29_184
*1304 TAP_TAPCELL_ROW_29_185
*1305 TAP_TAPCELL_ROW_29_186
*1306 TAP_TAPCELL_ROW_2_103
*1307 TAP_TAPCELL_ROW_2_104
*1308 TAP_TAPCELL_ROW_2_105
*1309 TAP_TAPCELL_ROW_30_187
*1310 TAP_TAPCELL_ROW_30_188
*1311 TAP_TAPCELL_ROW_30_189
*1312 TAP_TAPCELL_ROW_31_190
*1313 TAP_TAPCELL_ROW_31_191
*1314 TAP_TAPCELL_ROW_31_192
*1315 TAP_TAPCELL_ROW_32_193
*1316 TAP_TAPCELL_ROW_32_194
*1317 TAP_TAPCELL_ROW_32_195
*1318 TAP_TAPCELL_ROW_33_196
*1319 TAP_TAPCELL_ROW_33_197
*1320 TAP_TAPCELL_ROW_33_198
*1321 TAP_TAPCELL_ROW_34_199
*1322 TAP_TAPCELL_ROW_34_200
*1323 TAP_TAPCELL_ROW_34_201
*1324 TAP_TAPCELL_ROW_35_202
*1325 TAP_TAPCELL_ROW_35_203
*1326 TAP_TAPCELL_ROW_35_204
*1327 TAP_TAPCELL_ROW_36_205
*1328 TAP_TAPCELL_ROW_36_206
*1329 TAP_TAPCELL_ROW_36_207
*1330 TAP_TAPCELL_ROW_37_208
*1331 TAP_TAPCELL_ROW_37_209
*1332 TAP_TAPCELL_ROW_37_210
*1333 TAP_TAPCELL_ROW_38_211
*1334 TAP_TAPCELL_ROW_38_212
*1335 TAP_TAPCELL_ROW_38_213
*1336 TAP_TAPCELL_ROW_39_214
*1337 TAP_TAPCELL_ROW_39_215
*1338 TAP_TAPCELL_ROW_39_216
*1339 TAP_TAPCELL_ROW_3_106
*1340 TAP_TAPCELL_ROW_3_107
*1341 TAP_TAPCELL_ROW_3_108
*1342 TAP_TAPCELL_ROW_40_217
*1343 TAP_TAPCELL_ROW_40_218
*1344 TAP_TAPCELL_ROW_40_219
*1345 TAP_TAPCELL_ROW_41_220
*1346 TAP_TAPCELL_ROW_41_221
*1347 TAP_TAPCELL_ROW_41_222
*1348 TAP_TAPCELL_ROW_42_223
*1349 TAP_TAPCELL_ROW_42_224
*1350 TAP_TAPCELL_ROW_42_225
*1351 TAP_TAPCELL_ROW_43_226
*1352 TAP_TAPCELL_ROW_43_227
*1353 TAP_TAPCELL_ROW_43_228
*1354 TAP_TAPCELL_ROW_44_229
*1355 TAP_TAPCELL_ROW_44_230
*1356 TAP_TAPCELL_ROW_44_231
*1357 TAP_TAPCELL_ROW_45_232
*1358 TAP_TAPCELL_ROW_45_233
*1359 TAP_TAPCELL_ROW_45_234
*1360 TAP_TAPCELL_ROW_46_235
*1361 TAP_TAPCELL_ROW_46_236
*1362 TAP_TAPCELL_ROW_46_237
*1363 TAP_TAPCELL_ROW_46_238
*1364 TAP_TAPCELL_ROW_46_239
*1365 TAP_TAPCELL_ROW_46_240
*1366 TAP_TAPCELL_ROW_4_109
*1367 TAP_TAPCELL_ROW_4_110
*1368 TAP_TAPCELL_ROW_4_111
*1369 TAP_TAPCELL_ROW_5_112
*1370 TAP_TAPCELL_ROW_5_113
*1371 TAP_TAPCELL_ROW_5_114
*1372 TAP_TAPCELL_ROW_6_115
*1373 TAP_TAPCELL_ROW_6_116
*1374 TAP_TAPCELL_ROW_6_117
*1375 TAP_TAPCELL_ROW_7_118
*1376 TAP_TAPCELL_ROW_7_119
*1377 TAP_TAPCELL_ROW_7_120
*1378 TAP_TAPCELL_ROW_8_121
*1379 TAP_TAPCELL_ROW_8_122
*1380 TAP_TAPCELL_ROW_8_123
*1381 TAP_TAPCELL_ROW_9_124
*1382 TAP_TAPCELL_ROW_9_125
*1383 TAP_TAPCELL_ROW_9_126
*1384 ZeroToFiveCounter_10
*1385 ZeroToFiveCounter_11
*1386 ZeroToFiveCounter_12
*1387 ZeroToFiveCounter_13
*1388 ZeroToFiveCounter_14
*1389 ZeroToFiveCounter_15
*1390 ZeroToFiveCounter_16
*1391 ZeroToFiveCounter_9
*1392 _162_
*1393 _163_
*1394 _164_
*1395 _165_
*1396 _166_
*1397 _167_
*1398 _168_
*1399 _169_
*1400 _170_
*1401 _171_
*1402 _172_
*1403 _173_
*1404 _174_
*1405 _175_
*1406 _176_
*1407 _177_
*1408 _178_
*1409 _179_
*1410 _180_
*1411 _181_
*1412 _182_
*1413 _183_
*1414 _184_
*1415 _185_
*1416 _186_
*1417 _187_
*1418 _188_
*1419 _189_
*1420 _190_
*1421 _191_
*1422 _192_
*1423 _193_
*1424 _194_
*1425 _195_
*1426 _196_
*1427 _197_
*1428 _198_
*1429 _199_
*1430 _200_
*1431 _201_
*1432 _202_
*1433 _203_
*1434 _204_
*1435 _205_
*1436 _206_
*1437 _207_
*1438 _208_
*1439 _209_
*1440 _210_
*1441 _211_
*1442 _212_
*1443 _213_
*1444 _214_
*1445 _215_
*1446 _216_
*1447 _217_
*1448 _218_
*1449 _219_
*1450 _220_
*1451 _221_
*1452 _222_
*1453 _223_
*1454 _224_
*1455 _225_
*1456 _226_
*1457 _227_
*1458 _228_
*1459 _229_
*1460 _230_
*1461 _231_
*1462 _232_
*1463 _233_
*1464 _234_
*1465 _235_
*1466 _236_
*1467 _237_
*1468 _238_
*1469 _239_
*1470 _240_
*1471 _241_
*1472 _242_
*1473 _243_
*1474 _244_
*1475 _245_
*1476 _246_
*1477 _247_
*1478 _248_
*1479 _249_
*1480 _250_
*1481 _251_
*1482 _252_
*1483 _253_
*1484 _254_
*1485 _255_
*1486 _256_
*1487 _257_
*1488 _258_
*1489 _259_
*1490 _260_
*1491 _261_
*1492 _262_
*1493 _263_
*1494 _264_
*1495 _265_
*1496 _266_
*1497 _267_
*1498 _268_
*1499 _269_
*1500 _270_
*1501 _271_
*1502 _272_
*1503 _273_
*1504 _274_
*1505 _275_
*1506 _276_
*1507 _277_
*1508 _278_
*1509 _279_
*1510 _280_
*1511 _281_
*1512 _282_
*1513 _283_
*1514 _284_
*1515 _285_
*1516 _286_
*1517 _287_
*1518 _288_
*1519 _289_
*1520 _290_
*1521 _291_
*1522 _292_
*1523 _293_
*1524 _294_
*1525 _295_
*1526 _296_
*1527 _297_
*1528 _298_
*1529 _299_
*1530 _300_
*1531 _301_
*1532 _302_
*1533 _303_
*1534 _304_
*1535 _305_
*1536 _306_
*1537 _307_
*1538 _308_
*1539 _309_
*1540 _310_
*1541 _311_
*1542 _312_
*1543 _313_
*1544 _314_
*1545 _315_
*1546 _316_
*1547 _317_
*1548 _318_
*1549 _319_
*1550 _320_
*1551 _321_
*1552 _322_
*1553 _323_
*1554 _324_
*1555 _325_
*1556 _326_
*1557 _327_
*1558 _328_
*1559 _329_
*1560 _330_
*1561 _331_
*1562 _332_
*1563 _333_
*1564 _334_
*1565 _335_
*1566 _336_
*1567 _337_
*1568 _338_
*1569 _339_
*1570 _340_
*1571 _341_
*1572 _342_
*1573 _343_
*1574 _344_
*1575 _345_
*1576 _346_
*1577 _347_
*1578 _348_
*1579 _349_
*1580 _350_
*1581 _351_
*1582 _352_
*1583 _353_
*1584 _354_
*1585 _355_
*1586 _356_
*1587 _357_
*1588 _358_
*1589 _359_
*1590 _360_
*1591 _361_
*1592 _370_
*1593 clkbuf_0_clk
*1594 clkbuf_2_0__f_clk
*1595 clkbuf_2_1__f_clk
*1596 clkbuf_2_2__f_clk
*1597 clkbuf_2_3__f_clk
*1598 clkload0
*1599 clkload1
*1600 clkload2
*1601 hold1
*1602 input1
*1603 output2
*1604 output3
*1605 output4
*1606 output5
*1607 output6
*1608 output7
*1609 output8

*PORTS
an[0] O
an[1] O
an[2] O
an[3] O
an[4] O
an[5] O
an[6] O
an[7] O
clk I
rst I
seg[0] O
seg[1] O
seg[2] O
seg[3] O
seg[4] O
seg[5] O
seg[6] O

*D_NET *3 0.000880645
*CONN
*P an[0] O
*I *1384:HI O *D sky130_fd_sc_hd__conb_1
*CAP
1 an[0] 0.000440323
2 *1384:HI 0.000440323
*RES
1 *1384:HI an[0] 21.6393 
*END

*D_NET *4 0.000843067
*CONN
*P an[1] O
*I *1385:HI O *D sky130_fd_sc_hd__conb_1
*CAP
1 an[1] 0.000393918
2 *1385:HI 0.000393918
3 an[1] *1578:D 5.52302e-05
*RES
1 *1385:HI an[1] 21.2286 
*END

*D_NET *5 0.000909881
*CONN
*P an[2] O
*I *1386:HI O *D sky130_fd_sc_hd__conb_1
*CAP
1 an[2] 0.000427325
2 *1386:HI 0.000427325
3 an[2] *1486:A3 5.52302e-05
*RES
1 *1386:HI an[2] 21.8893 
*END

*D_NET *6 0.0010634
*CONN
*P an[3] O
*I *1387:HI O *D sky130_fd_sc_hd__conb_1
*CAP
1 an[3] 0.000460272
2 *1387:HI 0.000460272
3 an[3] *209:56 0.000142856
*RES
1 *1387:HI an[3] 22.05 
*END

*D_NET *7 0.00116518
*CONN
*P an[4] O
*I *1388:HI O *D sky130_fd_sc_hd__conb_1
*CAP
1 an[4] 0.000484631
2 *1388:HI 0.000484631
3 an[4] *1437:A1 0.000186669
4 an[4] *209:56 9.25014e-06
*RES
1 *1388:HI an[4] 22.4607 
*END

*D_NET *8 0.00088231
*CONN
*P an[5] O
*I *1389:HI O *D sky130_fd_sc_hd__conb_1
*CAP
1 an[5] 0.000374357
2 *1389:HI 0.000374357
3 an[5] *1437:A1 5.52302e-05
4 an[5] *114:24 7.83659e-05
*RES
1 *1389:HI an[5] 21.2286 
*END

*D_NET *9 0.000843067
*CONN
*P an[6] O
*I *1390:HI O *D sky130_fd_sc_hd__conb_1
*CAP
1 an[6] 0.000393918
2 *1390:HI 0.000393918
3 an[6] *1437:A1 5.52302e-05
*RES
1 *1390:HI an[6] 21.2286 
*END

*D_NET *10 0.000843346
*CONN
*P an[7] O
*I *1391:LO O *D sky130_fd_sc_hd__conb_1
*CAP
1 an[7] 0.000421673
2 *1391:LO 0.000421673
*RES
1 *1391:LO an[7] 21.8357 
*END

*D_NET *11 0.0168551
*CONN
*P clk I
*I *1593:A I *D sky130_fd_sc_hd__clkbuf_16
*CAP
1 clk 0.00422471
2 *1593:A 0
3 *11:23 0.00422471
4 *11:23 *1516:C 0.000130555
5 *11:23 *34:18 0.00275634
6 *11:23 *56:10 0
7 *11:23 *58:20 0
8 *11:23 *74:22 2.05739e-05
9 *11:23 *88:34 0.000103262
10 *11:23 *107:24 0.000109181
11 *11:23 *108:30 0.000223355
12 *11:23 *133:22 0.00085534
13 *11:23 *134:40 2.06178e-05
14 *11:23 *142:22 0.000131761
15 *11:23 *162:24 0.00390865
16 *11:23 *185:16 0
17 *11:23 *185:20 0.000125466
18 *11:23 *185:45 2.06178e-05
19 *11:23 *216:26 0
20 *11:23 *222:30 0
*RES
1 clk *11:23 46.9261 
2 *11:23 *1593:A 9.3 
*END

*D_NET *12 0.000959981
*CONN
*P rst I
*I *1602:A I *D sky130_fd_sc_hd__clkbuf_4
*CAP
1 rst 0.00047999
2 *1602:A 0.00047999
*RES
1 rst *1602:A 23.1571 
*END

*D_NET *13 0.000649286
*CONN
*P seg[0] O
*I *1603:X O *D sky130_fd_sc_hd__buf_2
*CAP
1 seg[0] 0.000324643
2 *1603:X 0.000324643
*RES
1 *1603:X seg[0] 19.4813 
*END

*D_NET *14 0.000567705
*CONN
*P seg[1] O
*I *1604:X O *D sky130_fd_sc_hd__buf_2
*CAP
1 seg[1] 0.000278913
2 *1604:X 0.000278913
3 seg[1] *1603:A 9.87983e-06
*RES
1 *1604:X seg[1] 18.267 
*END

*D_NET *15 0.00109503
*CONN
*P seg[2] O
*I *1605:X O *D sky130_fd_sc_hd__buf_2
*CAP
1 seg[2] 0.000333966
2 *1605:X 0.000333966
3 seg[2] *1573:RESET_B 0
4 seg[2] *35:18 0.000214575
5 seg[2] *78:10 0.000212522
*RES
1 *1605:X seg[2] 20.6956 
*END

*D_NET *16 0.000636032
*CONN
*P seg[3] O
*I *1606:X O *D sky130_fd_sc_hd__buf_2
*CAP
1 seg[3] 0.000296605
2 *1606:X 0.000296605
3 seg[3] *35:18 2.22043e-05
4 seg[3] *78:10 2.06178e-05
*RES
1 *1606:X seg[3] 18.267 
*END

*D_NET *17 0.00193294
*CONN
*P seg[4] O
*I *1607:X O *D sky130_fd_sc_hd__buf_2
*CAP
1 seg[4] 0.000907524
2 *1607:X 0.000907524
3 seg[4] *99:10 0.000117805
4 seg[4] *161:24 8.25872e-08
*RES
1 *1607:X seg[4] 24.0208 
*END

*D_NET *18 0.000702674
*CONN
*P seg[5] O
*I *1608:X O *D sky130_fd_sc_hd__buf_2
*CAP
1 seg[5] 0.000330124
2 *1608:X 0.000330124
3 seg[5] *35:16 2.18087e-05
4 seg[5] *78:10 2.06178e-05
*RES
1 *1608:X seg[5] 18.267 
*END

*D_NET *19 0.000545203
*CONN
*P seg[6] O
*I *1609:X O *D sky130_fd_sc_hd__buf_2
*CAP
1 seg[6] 0.000272601
2 *1609:X 0.000272601
*RES
1 *1609:X seg[6] 18.5706 
*END

*D_NET *20 0.00718494
*CONN
*I *1560:D I *D sky130_fd_sc_hd__dfrtp_4
*I *1420:Y O *D sky130_fd_sc_hd__nor2_1
*CAP
1 *1560:D 0
2 *1420:Y 0.000242345
3 *20:14 0.00106837
4 *20:8 0.00131072
5 *20:8 *1420:B 0.000390329
6 *20:8 *200:61 1.98839e-05
7 *20:14 *1426:B1 0.00011307
8 *20:14 *1501:A 0
9 *20:14 *1509:B 0
10 *20:14 *1586:CLK 1.95368e-05
11 *20:14 *21:6 6.78802e-05
12 *20:14 *25:10 0.00123267
13 *20:14 *37:10 0.00159364
14 *20:14 *184:28 0.000108088
15 *20:14 *200:34 0.000271439
16 *20:14 *201:46 0.000124875
17 *20:14 *211:85 0.000117477
18 *20:14 *211:87 2.09607e-05
19 *20:14 *219:8 0.00048366
*RES
1 *1420:Y *20:8 18.0321 
2 *20:8 *20:14 41.2143 
3 *20:14 *1560:D 9.3 
*END

*D_NET *21 0.0143416
*CONN
*I *1570:D I *D sky130_fd_sc_hd__dfrtp_4
*I *1456:X O *D sky130_fd_sc_hd__buf_1
*CAP
1 *1570:D 0.000104265
2 *1456:X 0
3 *21:6 0.00540338
4 *21:4 0.00529911
5 *1570:D *181:107 3.58978e-05
6 *21:6 *1406:B1 0.000614379
7 *21:6 *1560:RESET_B 0.00022259
8 *21:6 *200:10 1.63801e-05
9 *21:6 *200:34 8.65681e-05
10 *21:6 *208:38 0.00249118
11 *20:14 *21:6 6.78802e-05
*RES
1 *1456:X *21:4 9.3 
2 *21:4 *21:6 68.7143 
3 *21:6 *1570:D 19.9429 
*END

*D_NET *22 0.00526297
*CONN
*I *1571:D I *D sky130_fd_sc_hd__dfrtp_4
*I *1459:Y O *D sky130_fd_sc_hd__nor3_1
*CAP
1 *1571:D 0
2 *1459:Y 0.000974627
3 *22:18 0.000974627
4 *22:18 *1459:B 0.00119827
5 *22:18 *1498:B1 0.000135028
6 *22:18 *1498:C1 3.71659e-05
7 *22:18 *1569:CLK 9.11048e-06
8 *22:18 *46:24 0.000237676
9 *22:18 *47:174 9.35114e-06
10 *22:18 *95:16 0.000467002
11 *22:18 *163:16 3.21345e-05
12 *22:18 *183:64 0.00115755
13 *22:18 *188:20 3.04311e-05
*RES
1 *1459:Y *22:18 49.3714 
2 *22:18 *1571:D 13.8 
*END

*D_NET *23 0.013882
*CONN
*I *1572:D I *D sky130_fd_sc_hd__dfrtp_2
*I *1463:X O *D sky130_fd_sc_hd__buf_1
*CAP
1 *1572:D 6.20521e-05
2 *1463:X 0.00143553
3 *23:32 0.00281597
4 *23:16 0.00418944
5 *1572:D *1572:CLK 6.94952e-05
6 *1572:D *203:18 0.000178425
7 *23:16 *1394:B 0
8 *23:16 *1448:C 0.00059634
9 *23:16 *1459:B 0.000482652
10 *23:16 *1517:C1 0.000356524
11 *23:16 *1569:CLK 0.000187351
12 *23:16 *85:10 0
13 *23:16 *88:24 0
14 *23:16 *129:120 0.00105172
15 *23:16 *194:10 0
16 *23:16 *207:122 0
17 *23:16 *213:33 0
18 *23:32 *1417:B1_N 0.000881866
19 *23:32 *1499:A 3.79108e-05
20 *23:32 *1563:CLK 0.00143778
21 *23:32 *40:12 6.42951e-05
22 *23:32 *120:42 1.579e-05
23 *23:32 *203:18 1.8911e-05
*RES
1 *1463:X *23:16 47.7286 
2 *23:16 *23:32 48.5357 
3 *23:32 *1572:D 11.0679 
*END

*D_NET *24 0.00415064
*CONN
*I *1573:D I *D sky130_fd_sc_hd__dfrtp_1
*I *1467:X O *D sky130_fd_sc_hd__clkbuf_1
*CAP
1 *1573:D 0
2 *1467:X 0.00104389
3 *24:14 0.00104389
4 *24:14 *1459:C 0.00035046
5 *24:14 *1591:CLK 2.85234e-05
6 *24:14 *57:16 0.000104906
7 *24:14 *104:22 0.000194034
8 *24:14 *122:12 0.000175557
9 *24:14 *134:40 0
10 *24:14 *155:34 0.00102704
11 *24:14 *163:12 3.34295e-05
12 *24:14 *163:56 5.33005e-05
13 *24:14 *227:53 9.56043e-05
*RES
1 *1467:X *24:14 42.6036 
2 *24:14 *1573:D 9.3 
*END

*D_NET *25 0.0097713
*CONN
*I *1574:D I *D sky130_fd_sc_hd__dfrtp_1
*I *1472:X O *D sky130_fd_sc_hd__clkbuf_1
*CAP
1 *1574:D 9.44774e-05
2 *1472:X 0.000119551
3 *25:10 0.00118648
4 *25:8 0.00121155
5 *1574:D *1574:CLK 1.33343e-05
6 *1574:D *205:14 6.82569e-05
7 *25:8 *32:8 7.05898e-06
8 *25:8 *144:14 1.84865e-05
9 *25:10 *1564:RESET_B 0.00168238
10 *25:10 *1568:RESET_B 5.25252e-05
11 *25:10 *1579:RESET_B 0.000230898
12 *25:10 *130:22 6.39829e-05
13 *25:10 *189:28 0.000266751
14 *25:10 *201:46 0.000910557
15 *25:10 *201:61 0.00150482
16 *25:10 *211:85 0.00110753
17 *20:14 *25:10 0.00123267
*RES
1 *1472:X *25:8 15.1571 
2 *25:8 *25:10 47.1786 
3 *25:10 *1574:D 15.5857 
*END

*D_NET *26 0.0181909
*CONN
*I *1575:D I *D sky130_fd_sc_hd__dfrtp_2
*I *1476:Y O *D sky130_fd_sc_hd__a211oi_2
*CAP
1 *1575:D 0.000851989
2 *1476:Y 0
3 *26:16 0.00136114
4 *26:8 0.0019828
5 *26:4 0.00147365
6 *1575:D *1523:A 0.000271554
7 *1575:D *1608:A 0.000719028
8 *1575:D *35:16 0.000533713
9 *1575:D *62:10 0
10 *1575:D *99:10 0.00139925
11 *1575:D *129:97 6.8529e-05
12 *1575:D *129:103 9.71683e-05
13 *1575:D *206:8 0.000220093
14 *26:8 *1476:A2 0.00104048
15 *26:8 *1476:B1 5.49544e-05
16 *26:8 *1476:C1 2.36643e-05
17 *26:8 *1561:RESET_B 9.26349e-05
18 *26:8 *108:20 0.00400278
19 *26:8 *120:30 0.000374458
20 *26:8 *143:14 0.000180256
21 *26:8 *145:16 9.58126e-05
22 *26:16 *35:16 0.000240536
23 *26:16 *35:18 0.00141554
24 *26:16 *78:10 0.0016909
*RES
1 *1476:Y *26:4 9.3 
2 *26:4 *26:8 46.1071 
3 *26:8 *26:16 31.7321 
4 *26:16 *1575:D 43.4964 
*END

*D_NET *27 0.0101026
*CONN
*I *1576:D I *D sky130_fd_sc_hd__dfrtp_4
*I *1480:X O *D sky130_fd_sc_hd__clkbuf_1
*CAP
1 *1576:D 0.000704101
2 *1480:X 0.00143521
3 *27:14 0.00213931
4 *1576:D *1478:A 0.000223141
5 *1576:D *1576:RESET_B 8.3648e-05
6 *1576:D *85:31 0.000506989
7 *1576:D *149:6 0.000221166
8 *1576:D *180:123 0.000215288
9 *1576:D *180:143 0.000205429
10 *27:14 *1413:C 0.000694402
11 *27:14 *89:16 0.000855727
12 *27:14 *103:33 9.55094e-05
13 *27:14 *115:87 2.50047e-05
14 *27:14 *128:20 0.000125449
15 *27:14 *133:22 0.000124022
16 *27:14 *140:12 0.000966848
17 *27:14 *141:28 0.000639326
18 *27:14 *168:14 0.000842073
*RES
1 *1480:X *27:14 47.7286 
2 *27:14 *1576:D 28.8536 
*END

*D_NET *28 0.00305484
*CONN
*I *1577:D I *D sky130_fd_sc_hd__dfrtp_4
*I *1482:Y O *D sky130_fd_sc_hd__nor2_1
*CAP
1 *1577:D 0.000512949
2 *1482:Y 0.000512949
3 *1577:D *1411:C 0.000808371
4 *1577:D *1432:A 0.000333229
5 *1577:D *165:37 0.000333229
6 *1577:D *202:20 0.00055411
*RES
1 *1482:Y *1577:D 41.5821 
*END

*D_NET *29 0.0119555
*CONN
*I *1578:D I *D sky130_fd_sc_hd__dfrtp_4
*I *1485:X O *D sky130_fd_sc_hd__o211a_1
*CAP
1 *1578:D 0.00023919
2 *1485:X 0
3 *29:8 0.00180867
4 *29:6 0.00156948
5 *1578:D *1578:CLK 8.07313e-05
6 *29:8 *1510:B 0.00029629
7 *29:8 *1570:RESET_B 0
8 *29:8 *58:20 0.00051639
9 *29:8 *79:12 0.00250135
10 *29:8 *170:14 0.000401809
11 *29:8 *191:86 0.00448634
12 an[1] *1578:D 5.52302e-05
*RES
1 *1485:X *29:6 13.8 
2 *29:6 *29:8 60.5357 
3 *29:8 *1578:D 18.0321 
*END

*D_NET *30 0.0165127
*CONN
*I *1579:D I *D sky130_fd_sc_hd__dfrtp_2
*I *1491:X O *D sky130_fd_sc_hd__buf_1
*CAP
1 *1579:D 1.80562e-05
2 *1491:X 0.00269218
3 *30:10 0.00111087
4 *30:6 0.00378499
5 *1579:D *1572:RESET_B 5.49489e-05
6 *1579:D *57:16 2.59355e-05
7 *30:6 *1395:A 1.98839e-05
8 *30:6 *1491:A 0.00183602
9 *30:6 *132:8 0.000385778
10 *30:6 *179:132 0.000401368
11 *30:10 *1432:A 0.00101832
12 *30:10 *1519:A1 0.000197717
13 *30:10 *165:37 0.00331266
14 *30:10 *186:70 0.000191097
15 *30:10 *186:72 0.000384351
16 *30:10 *187:138 0.000328685
17 *30:10 *191:30 0.000749836
*RES
1 *1491:X *30:6 45.5679 
2 *30:6 *30:10 47.125 
3 *30:10 *1579:D 14.3357 
*END

*D_NET *31 0.00721356
*CONN
*I *1561:D I *D sky130_fd_sc_hd__dfrtp_4
*I *1424:X O *D sky130_fd_sc_hd__clkbuf_1
*CAP
1 *1561:D 0.000196114
2 *1424:X 0.00101074
3 *31:12 0.00120686
4 *1561:D *1561:CLK 0.000683954
5 *1561:D *180:35 0.000685877
6 *1561:D *180:56 4.40153e-05
7 *1561:D *210:14 6.7224e-05
8 *31:12 *1413:D 0.000517362
9 *31:12 *1447:B 0.000398458
10 *31:12 *1487:B 5.33005e-05
11 *31:12 *1522:C 0.000452235
12 *31:12 *1587:RESET_B 0.000170467
13 *31:12 *100:10 1.87004e-05
14 *31:12 *106:55 0.000137292
15 *31:12 *204:38 2.39876e-05
16 *31:12 *209:70 0.000911427
17 *31:12 *209:85 0.000635547
18 *31:12 *225:71 0
*RES
1 *1424:X *31:12 44.2286 
2 *31:12 *1561:D 17.2286 
*END

*D_NET *32 0.00773805
*CONN
*I *1580:D I *D sky130_fd_sc_hd__dfrtp_2
*I *1495:X O *D sky130_fd_sc_hd__clkbuf_1
*CAP
1 *1580:D 0.00159485
2 *1495:X 0.00112829
3 *32:8 0.00272314
4 *1580:D *54:18 0.000104041
5 *1580:D *82:12 0
6 *1580:D *98:37 0
7 *1580:D *99:20 4.23557e-05
8 *1580:D *147:166 0.000354985
9 *1580:D *158:22 0.000159473
10 *1580:D *175:89 4.27078e-05
11 *1580:D *202:74 6.86385e-05
12 *1580:D *206:14 0.00103345
13 *32:8 *144:14 0.000479063
14 *25:8 *32:8 7.05898e-06
*RES
1 *1495:X *32:8 27.0679 
2 *32:8 *1580:D 47.3536 
*END

*D_NET *33 0.0163524
*CONN
*I *1581:D I *D sky130_fd_sc_hd__dfrtp_2
*I *1498:Y O *D sky130_fd_sc_hd__a211oi_2
*CAP
1 *1581:D 0.000243206
2 *1498:Y 0.00395274
3 *33:22 0.00419594
4 *1581:D *1414:A2 0.000603599
5 *1581:D *162:24 0.000140349
6 *1581:D *185:20 0.000200422
7 *33:22 *1427:A 0.0025627
8 *33:22 *1445:C1 0.000107625
9 *33:22 *1498:B1 9.96487e-05
10 *33:22 *1503:A 9.87983e-06
11 *33:22 *34:18 0
12 *33:22 *48:12 0.000146091
13 *33:22 *59:8 0.000106109
14 *33:22 *80:16 4.67151e-05
15 *33:22 *95:78 0.000342127
16 *33:22 *110:16 0.000325666
17 *33:22 *127:24 0.000966668
18 *33:22 *130:38 0.00030811
19 *33:22 *146:10 0.000203997
20 *33:22 *147:16 0
21 *33:22 *147:99 0.000599586
22 *33:22 *162:24 0.000210962
23 *33:22 *180:143 0.000251574
24 *33:22 *188:32 0.000418321
25 *33:22 *215:14 0.000310371
*RES
1 *1498:Y *33:22 47.1486 
2 *33:22 *1581:D 21.6661 
*END

*D_NET *34 0.0206392
*CONN
*I *1582:D I *D sky130_fd_sc_hd__dfrtp_1
*I *1502:X O *D sky130_fd_sc_hd__buf_1
*CAP
1 *1582:D 0
2 *1502:X 0.00293837
3 *34:30 0.000906953
4 *34:18 0.00384532
5 *34:18 *1408:A 0.000474576
6 *34:18 *1466:B 0.000307936
7 *34:18 *74:22 0.00031877
8 *34:18 *107:24 0.000789463
9 *34:18 *129:120 3.4075e-05
10 *34:18 *130:38 0
11 *34:18 *146:10 0
12 *34:18 *149:25 0.00044043
13 *34:18 *160:10 0.000296762
14 *34:18 *168:33 0.000257791
15 *34:18 *191:70 0.000169707
16 *34:18 *217:35 0.000535944
17 *34:18 *224:18 0.000588145
18 *34:30 *1494:C 0.000719855
19 *34:30 *74:22 0.000107321
20 *34:30 *108:30 6.20441e-06
21 *34:30 *160:10 0.00213342
22 *34:30 *162:24 0.000269272
23 *34:30 *170:37 2.26018e-06
24 *34:30 *207:30 0.00168679
25 *34:30 *217:29 0.000105436
26 *34:30 *217:35 0.000948
27 *11:23 *34:18 0.00275634
28 *33:22 *34:18 0
*RES
1 *1502:X *34:18 47.0609 
2 *34:18 *34:30 48.287 
3 *34:30 *1582:D 9.3 
*END

*D_NET *35 0.016195
*CONN
*I *1583:D I *D sky130_fd_sc_hd__dfrtp_1
*I *1505:Y O *D sky130_fd_sc_hd__a221oi_2
*CAP
1 *1583:D 0.00137058
2 *1505:Y 0.00087407
3 *35:18 0.00245616
4 *35:16 0.00195964
5 *1583:D *1501:A 4.26863e-05
6 *1583:D *1583:RESET_B 2.84109e-05
7 *1583:D *114:24 1.91998e-05
8 *1583:D *184:84 0.000679312
9 *35:16 *1505:C1 2.84109e-05
10 *35:16 *1608:A 0.00055199
11 *35:16 *57:12 6.54117e-05
12 *35:16 *62:10 0.000188531
13 *35:16 *78:10 0.000511519
14 *35:16 *99:10 8.29822e-05
15 *35:18 *57:12 2.68558e-05
16 *35:18 *78:10 0.00124746
17 *35:18 *197:10 0.00361338
18 seg[2] *35:18 0.000214575
19 seg[3] *35:18 2.22043e-05
20 seg[5] *35:16 2.18087e-05
21 *1575:D *35:16 0.000533713
22 *26:16 *35:16 0.000240536
23 *26:16 *35:18 0.00141554
*RES
1 *1505:Y *35:16 41.4518 
2 *35:16 *35:18 50.0625 
3 *35:18 *1583:D 35.0143 
*END

*D_NET *36 0.0113247
*CONN
*I *1584:D I *D sky130_fd_sc_hd__dfrtp_4
*I *1508:Y O *D sky130_fd_sc_hd__nor3_1
*CAP
1 *1584:D 0.00185248
2 *1508:Y 0.0010987
3 *36:12 0.00295118
4 *1584:D *1565:CLK 5.42185e-05
5 *1584:D *1565:RESET_B 0.000267627
6 *1584:D *1584:CLK 9.441e-05
7 *1584:D *43:8 0.000375657
8 *1584:D *101:12 0
9 *1584:D *107:24 0.000233389
10 *1584:D *179:108 0.000263446
11 *1584:D *213:33 0.000133468
12 *1584:D *216:22 0.000156108
13 *1584:D *222:10 0.000357162
14 *36:12 *1474:A 0.000400253
15 *36:12 *1508:A 0.00276138
16 *36:12 *81:12 0.000139485
17 *36:12 *146:8 0.000185721
*RES
1 *1508:Y *36:12 40.7643 
2 *36:12 *1584:D 46.6214 
*END

*D_NET *37 0.00638876
*CONN
*I *1585:D I *D sky130_fd_sc_hd__dfrtp_4
*I *1512:X O *D sky130_fd_sc_hd__clkbuf_1
*CAP
1 *1585:D 4.04106e-05
2 *1512:X 0.00136706
3 *37:10 0.00140747
4 *1585:D *1585:CLK 6.05161e-06
5 *1585:D *1585:RESET_B 0.000139907
6 *1585:D *217:10 5.88126e-05
7 *37:10 *1509:A 0
8 *37:10 *1509:B 0
9 *37:10 *1589:RESET_B 0.00126874
10 *37:10 *184:28 3.17067e-05
11 *37:10 *197:8 0.000474965
12 *20:14 *37:10 0.00159364
*RES
1 *1512:X *37:10 46.7107 
2 *37:10 *1585:D 15.1571 
*END

*D_NET *38 0.00253297
*CONN
*I *1586:D I *D sky130_fd_sc_hd__dfrtp_1
*I *1514:X O *D sky130_fd_sc_hd__o211a_1
*CAP
1 *1586:D 0.000788336
2 *1514:X 0.000788336
3 *1586:D *1462:B 0
4 *1586:D *111:6 5.49995e-05
5 *1586:D *114:24 9.22342e-05
6 *1586:D *115:54 5.4065e-05
7 *1586:D *136:24 0.000262956
8 *1586:D *137:24 1.84336e-05
9 *1586:D *208:32 0.000473605
*RES
1 *1514:X *1586:D 41.8143 
*END

*D_NET *39 0.01257
*CONN
*I *1562:D I *D sky130_fd_sc_hd__dfrtp_4
*I *1428:X O *D sky130_fd_sc_hd__buf_1
*CAP
1 *1562:D 0.00209842
2 *1428:X 0.00163412
3 *39:8 0.00373254
4 *1562:D *1462:B 0.000673709
5 *1562:D *1497:D 1.15281e-05
6 *1562:D *1562:CLK 6.36335e-05
7 *1562:D *115:54 0.000113705
8 *1562:D *156:10 0.000683339
9 *1562:D *193:26 0.000730745
10 *1562:D *213:81 8.11174e-05
11 *39:8 *1428:A 0.000627296
12 *39:8 *1510:B 0.000310292
13 *39:8 *74:22 0.000268501
14 *39:8 *115:54 0.00023763
15 *39:8 *213:81 0.00130344
*RES
1 *1428:X *39:8 41.8893 
2 *39:8 *1562:D 49.5723 
*END

*D_NET *40 0.00597098
*CONN
*I *1563:D I *D sky130_fd_sc_hd__dfrtp_1
*I *1431:X O *D sky130_fd_sc_hd__clkbuf_1
*CAP
1 *1563:D 0
2 *1431:X 0.000897638
3 *40:12 0.000897638
4 *40:12 *1416:B1 0.000123288
5 *40:12 *1416:C1 5.10678e-05
6 *40:12 *1451:C 3.20609e-05
7 *40:12 *1471:C 7.29646e-05
8 *40:12 *1490:C 0.000100855
9 *40:12 *1499:A 0.000896106
10 *40:12 *1499:B 0.000262686
11 *40:12 *1563:CLK 0.000261488
12 *40:12 *1566:D 0.000193763
13 *40:12 *47:39 0.000738415
14 *40:12 *104:22 4.40898e-05
15 *40:12 *129:35 0
16 *40:12 *130:22 0.000801871
17 *40:12 *171:12 0.000284625
18 *40:12 *206:40 0.000248131
19 *23:32 *40:12 6.42951e-05
*RES
1 *1431:X *40:12 47.8179 
2 *40:12 *1563:D 9.3 
*END

*D_NET *41 0.0117164
*CONN
*I *1564:D I *D sky130_fd_sc_hd__dfrtp_4
*I *1436:X O *D sky130_fd_sc_hd__clkbuf_1
*CAP
1 *1564:D 0
2 *1436:X 0.000446465
3 *41:14 0.00148422
4 *41:12 0.00193068
5 *41:12 *46:24 9.91086e-05
6 *41:12 *105:52 0.000100831
7 *41:12 *153:8 8.25843e-06
8 *41:12 *207:30 0.000466125
9 *41:14 *105:112 0.00159913
10 *41:14 *105:121 0.000327935
11 *41:14 *184:108 7.019e-05
12 *41:14 *207:80 0.00126451
13 *41:14 *213:61 0.000307722
14 *41:14 *216:54 0.00361118
*RES
1 *1436:X *41:12 24.6929 
2 *41:12 *41:14 44.4821 
3 *41:14 *1564:D 9.3 
*END

*D_NET *42 0.014997
*CONN
*I *1565:D I *D sky130_fd_sc_hd__dfrtp_2
*I *1439:Y O *D sky130_fd_sc_hd__nor3_1
*CAP
1 *1565:D 0.000954727
2 *1439:Y 0.000871762
3 *42:10 0.00292078
4 *42:8 0.00283782
5 *1565:D *56:12 0.000481594
6 *1565:D *133:22 0.000162133
7 *42:8 *57:16 2.23592e-05
8 *42:8 *226:31 0.00114635
9 *42:10 *1482:B 3.81109e-05
10 *42:10 *1488:B 0.000149039
11 *42:10 *1561:RESET_B 9.10431e-06
12 *42:10 *1577:RESET_B 0.000547842
13 *42:10 *1584:CLK 0
14 *42:10 *43:10 0.000717963
15 *42:10 *66:10 0
16 *42:10 *88:12 0.0016647
17 *42:10 *99:20 0.000588005
18 *42:10 *102:26 0.000293495
19 *42:10 *120:30 7.6644e-05
20 *42:10 *196:43 6.19181e-05
21 *42:10 *203:88 0.00145261
*RES
1 *1439:Y *42:8 25.425 
2 *42:8 *42:10 56.8929 
3 *42:10 *1565:D 36.175 
*END

*D_NET *43 0.0199718
*CONN
*I *1566:D I *D sky130_fd_sc_hd__dfrtp_2
*I *1443:X O *D sky130_fd_sc_hd__buf_1
*CAP
1 *1566:D 0.00220577
2 *1443:X 0.000746083
3 *43:10 0.00361852
4 *43:8 0.00215883
5 *1566:D *1392:A 0
6 *1566:D *1452:B 0
7 *1566:D *1462:B 0.000114667
8 *1566:D *1482:B 0.000198706
9 *1566:D *1595:A 0
10 *1566:D *47:39 0.000194161
11 *1566:D *54:18 0.000490361
12 *1566:D *102:26 0.00207894
13 *1566:D *104:22 0.000108076
14 *1566:D *130:22 0.000120674
15 *1566:D *130:38 0.000535467
16 *1566:D *136:24 0.000305985
17 *1566:D *156:10 0.000113728
18 *1566:D *158:22 0.000275175
19 *1566:D *191:30 0
20 *43:8 *1584:CLK 0.000272321
21 *43:10 *1482:B 0.000657325
22 *43:10 *88:12 0.00166071
23 *43:10 *98:37 6.56977e-05
24 *43:10 *99:20 0.000586482
25 *43:10 *130:38 0.000247229
26 *43:10 *147:166 0.00186135
27 *43:10 *151:22 6.81125e-05
28 *43:10 *216:18 0
29 *1584:D *43:8 0.000375657
30 *40:12 *1566:D 0.000193763
31 *42:10 *43:10 0.000717963
*RES
1 *1443:X *43:8 23.7821 
2 *43:8 *43:10 47.3304 
3 *43:10 *1566:D 36.2192 
*END

*D_NET *44 0.016563
*CONN
*I *1567:D I *D sky130_fd_sc_hd__dfrtp_2
*I *1445:Y O *D sky130_fd_sc_hd__a211oi_1
*CAP
1 *1567:D 0
2 *1445:Y 0.00604072
3 *44:26 0.00604072
4 *44:26 *1452:B 0.000116494
5 *44:26 *1522:C 0.000147914
6 *44:26 *1560:RESET_B 0.000135521
7 *44:26 *1563:RESET_B 0.000223303
8 *44:26 *102:26 2.35126e-05
9 *44:26 *106:55 1.24368e-05
10 *44:26 *151:22 0.000178908
11 *44:26 *161:24 0
12 *44:26 *182:18 0
13 *44:26 *190:69 4.33002e-05
14 *44:26 *206:40 6.72944e-05
15 *44:26 *223:35 0.00353287
*RES
1 *1445:Y *44:26 48.0508 
2 *44:26 *1567:D 13.8 
*END

*D_NET *45 0.00965168
*CONN
*I *1568:D I *D sky130_fd_sc_hd__dfrtp_4
*I *1449:X O *D sky130_fd_sc_hd__clkbuf_1
*CAP
1 *1568:D 0
2 *1449:X 0.000718075
3 *45:28 0.00121763
4 *45:18 0.00193571
5 *45:18 *1451:A 0.000111512
6 *45:18 *1451:B 0.000169603
7 *45:18 *1451:C 5.31803e-05
8 *45:18 *1471:A 0.00022608
9 *45:18 *1471:C 6.47668e-05
10 *45:18 *129:8 0.000137983
11 *45:18 *143:41 5.36e-05
12 *45:18 *206:40 6.55123e-05
13 *45:28 *1568:CLK 0.000426556
14 *45:28 *50:18 2.49484e-05
15 *45:28 *95:55 0.000520838
16 *45:28 *115:14 6.76272e-05
17 *45:28 *164:12 0.00115274
18 *45:28 *191:30 0.000310236
19 *45:28 *194:14 2.59355e-05
20 *45:28 *194:22 0.00231489
21 *45:28 *225:14 5.42483e-05
*RES
1 *1449:X *45:18 25.6214 
2 *45:18 *45:28 42.2321 
3 *45:28 *1568:D 9.3 
*END

*D_NET *46 0.0168438
*CONN
*I *1569:D I *D sky130_fd_sc_hd__dfrtp_2
*I *1452:Y O *D sky130_fd_sc_hd__nor3_1
*CAP
1 *1569:D 0.000564426
2 *1452:Y 0.00018555
3 *46:24 0.00197803
4 *46:16 0.00345613
5 *46:12 0.00222807
6 *1569:D *1526:A 0.000104029
7 *1569:D *1569:CLK 4.31597e-05
8 *46:12 *1521:A 0.000518228
9 *46:12 *47:20 0.000518228
10 *46:12 *55:20 9.9129e-05
11 *46:16 *170:45 3.97657e-05
12 *46:16 *193:26 0.00271367
13 *46:24 *1427:A 0.000107784
14 *46:24 *1526:A 0.000229444
15 *46:24 *1569:RESET_B 5.69386e-05
16 *46:24 *48:12 0.000423685
17 *46:24 *59:8 1.37255e-05
18 *46:24 *95:16 0.00011654
19 *46:24 *95:70 0.000127416
20 *46:24 *105:44 0.000357491
21 *46:24 *105:52 0.000891587
22 *46:24 *146:10 0.000539789
23 *46:24 *147:10 2.06112e-05
24 *46:24 *187:48 0.000157793
25 *46:24 *193:14 0.00010001
26 *46:24 *196:31 0.00087833
27 *46:24 *207:20 3.75052e-05
28 *22:18 *46:24 0.000237676
29 *41:12 *46:24 9.91086e-05
*RES
1 *1452:Y *46:12 24.6929 
2 *46:12 *46:16 32.1429 
3 *46:16 *46:24 45.8036 
4 *46:24 *1569:D 15.6438 
*END

*D_NET *47 0.0471568
*CONN
*I *1498:C1 I *D sky130_fd_sc_hd__a211oi_2
*I *1459:A I *D sky130_fd_sc_hd__nor3_1
*I *1420:B I *D sky130_fd_sc_hd__nor2_1
*I *1439:A I *D sky130_fd_sc_hd__nor3_1
*I *1587:D I *D sky130_fd_sc_hd__dfrtp_4
*I *1505:C1 I *D sky130_fd_sc_hd__a221oi_2
*I *1508:A I *D sky130_fd_sc_hd__nor3_1
*I *1476:C1 I *D sky130_fd_sc_hd__a211oi_2
*I *1482:A I *D sky130_fd_sc_hd__nor2_1
*I *1452:A I *D sky130_fd_sc_hd__nor3_1
*I *1419:X O *D sky130_fd_sc_hd__buf_4
*CAP
1 *1498:C1 0.000359228
2 *1459:A 0
3 *1420:B 0.000749414
4 *1439:A 0
5 *1587:D 0.000110291
6 *1505:C1 0.00282885
7 *1508:A 0.00102214
8 *1476:C1 0.000335407
9 *1482:A 0
10 *1452:A 0
11 *1419:X 0.000406384
12 *47:174 0.000654515
13 *47:105 0.00503637
14 *47:79 0.00172549
15 *47:64 0.00134465
16 *47:56 0.00195584
17 *47:39 0.00193003
18 *47:33 0.0019879
19 *47:20 0.00204947
20 *47:12 0.00206628
21 *1420:B *1490:A 5.52302e-05
22 *1420:B *1490:C 0.000111333
23 *1420:B *200:61 9.41642e-05
24 *1476:C1 *1476:B1 9.62729e-05
25 *1476:C1 *108:20 0.000265031
26 *1498:C1 *1459:C 3.41517e-06
27 *1498:C1 *1498:B1 4.6025e-06
28 *1498:C1 *48:12 0.000243529
29 *1498:C1 *105:52 4.5953e-05
30 *1498:C1 *162:24 1.94945e-05
31 *1498:C1 *193:14 0.000353925
32 *1498:C1 *215:14 3.36275e-05
33 *1505:C1 *1474:A 0.000249084
34 *1505:C1 *1474:C 0.00117813
35 *1505:C1 *1519:B1 0.000704
36 *1505:C1 *1540:A 1.94945e-05
37 *1505:C1 *129:97 8.80625e-05
38 *1505:C1 *136:24 9.3166e-05
39 *1505:C1 *167:24 0
40 *1505:C1 *191:30 0.000136649
41 *1505:C1 *201:76 0.000101601
42 *1508:A *1474:A 0.000388909
43 *1508:A *1474:C 0.00122914
44 *1508:A *1508:C 0.000580273
45 *1508:A *81:12 6.62773e-05
46 *1587:D *1424:A 1.7532e-05
47 *1587:D *126:16 5.90747e-05
48 *1587:D *156:25 3.17465e-05
49 *47:12 *1407:D 5.51219e-05
50 *47:12 *93:51 0.000346471
51 *47:12 *95:123 0
52 *47:12 *188:158 0
53 *47:20 *1520:B 0.00056318
54 *47:20 *1521:A 8.86413e-05
55 *47:20 *55:20 0.000614803
56 *47:20 *187:69 0.000165802
57 *47:20 *205:14 9.40126e-05
58 *47:33 *1392:A 0.00037411
59 *47:33 *1490:C 0.00047404
60 *47:33 *1521:A 0.000137515
61 *47:33 *144:14 0.000149824
62 *47:33 *154:16 8.02811e-05
63 *47:33 *205:14 9.58593e-05
64 *47:33 *206:26 0.000120724
65 *47:33 *206:40 0.000233746
66 *47:39 *1416:B1 6.05161e-06
67 *47:39 *1451:A 0
68 *47:39 *1490:C 9.41642e-05
69 *47:39 *1577:RESET_B 0.000168197
70 *47:39 *104:22 0.000523694
71 *47:39 *130:22 0.000110498
72 *47:56 *1464:A1 6.40426e-05
73 *47:56 *1577:RESET_B 4.75956e-06
74 *47:56 *76:20 0.000448347
75 *47:56 *106:55 2.16715e-05
76 *47:56 *125:12 0.000135376
77 *47:56 *130:22 1.01912e-05
78 *47:56 *142:22 0.000233343
79 *47:64 *1464:A1 0.000468677
80 *47:64 *108:20 0.000458965
81 *47:64 *125:12 0.000168502
82 *47:64 *182:14 2.06178e-05
83 *47:64 *225:30 0.000100823
84 *47:79 *1424:A 0.000209237
85 *47:79 *65:24 0.000730945
86 *47:79 *122:12 0.00028369
87 *47:79 *134:40 8.07807e-05
88 *47:79 *185:45 2.56785e-05
89 *47:79 *222:30 0.000113079
90 *47:105 *1442:C 0.000101444
91 *47:105 *1504:A 7.0769e-05
92 *47:105 *122:32 0.000599465
93 *47:105 *124:14 0.000545333
94 *47:105 *133:22 0.000392968
95 *47:105 *155:57 0
96 *47:105 *167:24 0.000487047
97 *47:105 *208:81 2.4775e-05
98 *47:105 *212:16 0
99 *47:105 *222:30 0.000426334
100 *47:105 *227:26 2.07592e-05
101 *47:174 *1407:D 1.32056e-05
102 *47:174 *1459:B 1.59373e-05
103 *47:174 *1459:C 0.000229291
104 *47:174 *93:51 0.000171954
105 *47:174 *95:6 0.000224657
106 *47:174 *95:16 0.000224341
107 *47:174 *188:158 0
108 *1566:D *47:39 0.000194161
109 *20:8 *1420:B 0.000390329
110 *22:18 *1498:C1 3.71659e-05
111 *22:18 *47:174 9.35114e-06
112 *26:8 *1476:C1 2.36643e-05
113 *35:16 *1505:C1 2.84109e-05
114 *36:12 *1508:A 0.00276138
115 *40:12 *47:39 0.000738415
116 *46:12 *47:20 0.000518228
*RES
1 *1419:X *47:12 21.8714 
2 *47:12 *47:20 31.875 
3 *47:20 *1452:A 9.3 
4 *47:20 *47:33 28.7143 
5 *47:33 *47:39 19.6607 
6 *47:39 *1482:A 13.8 
7 *47:39 *47:56 11.3887 
8 *47:56 *47:64 15.875 
9 *47:64 *1476:C1 14.3893 
10 *47:64 *47:79 17.5268 
11 *47:79 *47:105 38.6512 
12 *47:105 *1508:A 44.4786 
13 *47:105 *1505:C1 42.5943 
14 *47:79 *1587:D 15.5098 
15 *47:56 *1439:A 13.8 
16 *47:33 *1420:B 22.1571 
17 *47:12 *47:174 12.6429 
18 *47:174 *1459:A 9.3 
19 *47:174 *1498:C1 27.5321 
*END

*D_NET *48 0.0181303
*CONN
*I *1560:RESET_B I *D sky130_fd_sc_hd__dfrtp_4
*I *1526:Y O *D sky130_fd_sc_hd__inv_2
*CAP
1 *1560:RESET_B 0.000901014
2 *1526:Y 0.000877616
3 *48:16 0.00357919
4 *48:12 0.00355579
5 *1560:RESET_B *1452:C 0.000306473
6 *1560:RESET_B *1490:C 0
7 *1560:RESET_B *114:24 0.00163046
8 *1560:RESET_B *200:10 0.000317503
9 *1560:RESET_B *200:34 0.000159366
10 *1560:RESET_B *206:40 0.000144741
11 *48:12 *1427:A 0.000300646
12 *48:12 *1498:B1 1.07851e-05
13 *48:12 *1569:RESET_B 0.000208868
14 *48:12 *95:78 0.000939467
15 *48:12 *105:52 0.000498961
16 *48:12 *188:32 0.000953511
17 *48:12 *188:45 0.000165237
18 *48:16 *1583:RESET_B 3.42904e-05
19 *48:16 *189:72 8.4763e-05
20 *48:16 *189:80 0.00199322
21 *48:16 *215:12 0.000297036
22 *1498:C1 *48:12 0.000243529
23 *21:6 *1560:RESET_B 0.00022259
24 *33:22 *48:12 0.000146091
25 *44:26 *1560:RESET_B 0.000135521
26 *46:24 *48:12 0.000423685
*RES
1 *1526:Y *48:12 47.55 
2 *48:12 *48:16 38.3036 
3 *48:16 *1560:RESET_B 31.6875 
*END

*D_NET *49 0.00561538
*CONN
*I *1561:RESET_B I *D sky130_fd_sc_hd__dfrtp_4
*I *1527:Y O *D sky130_fd_sc_hd__inv_2
*CAP
1 *1561:RESET_B 0.00193402
2 *1527:Y 0.00193402
3 *1561:RESET_B *1476:A2 0.000638044
4 *1561:RESET_B *1476:B1 0.000142788
5 *1561:RESET_B *66:10 0.000100823
6 *1561:RESET_B *120:30 3.69697e-05
7 *1561:RESET_B *143:14 0.000337196
8 *1561:RESET_B *145:16 4.58194e-05
9 *1561:RESET_B *225:30 0.00034395
10 *26:8 *1561:RESET_B 9.26349e-05
11 *42:10 *1561:RESET_B 9.10431e-06
*RES
1 *1527:Y *1561:RESET_B 43.1929 
*END

*D_NET *50 0.0162628
*CONN
*I *1562:RESET_B I *D sky130_fd_sc_hd__dfrtp_4
*I *1528:Y O *D sky130_fd_sc_hd__inv_2
*CAP
1 *1562:RESET_B 0
2 *1528:Y 0.00134112
3 *50:18 0.0013523
4 *50:10 0.00269342
5 *50:10 *51:10 0.00141472
6 *50:10 *54:18 0.000105188
7 *50:10 *115:14 4.58764e-05
8 *50:10 *115:87 0.00153412
9 *50:10 *132:8 0.000403505
10 *50:10 *179:148 2.58997e-05
11 *50:10 *186:10 0.000102891
12 *50:10 *186:21 3.70696e-05
13 *50:10 *186:72 0
14 *50:10 *200:129 5.51649e-05
15 *50:10 *206:14 0.000310681
16 *50:18 *1432:A 0.00018943
17 *50:18 *1501:A 1.03904e-05
18 *50:18 *1501:C 0.000532535
19 *50:18 *1509:A 0.000173318
20 *50:18 *1563:CLK 0.000353684
21 *50:18 *115:14 0
22 *50:18 *165:35 0.000770462
23 *50:18 *184:8 0.000422083
24 *50:18 *184:10 0.000361071
25 *50:18 *184:12 0.000196269
26 *50:18 *184:14 5.83233e-05
27 *50:18 *184:108 0.000935122
28 *50:18 *186:72 0.000199473
29 *50:18 *186:74 0.000775398
30 *50:18 *191:30 0.000383777
31 *50:18 *194:22 0.00145456
32 *45:28 *50:18 2.49484e-05
*RES
1 *1528:Y *50:10 49.5232 
2 *50:10 *50:18 49.4554 
3 *50:18 *1562:RESET_B 4.5 
*END

*D_NET *51 0.0109695
*CONN
*I *1563:RESET_B I *D sky130_fd_sc_hd__dfrtp_1
*I *1529:Y O *D sky130_fd_sc_hd__inv_2
*CAP
1 *1563:RESET_B 0.00191178
2 *1529:Y 0.000524447
3 *51:10 0.00243623
4 *1563:RESET_B *1487:A 0
5 *1563:RESET_B *85:31 0.000690681
6 *1563:RESET_B *88:24 0.000454435
7 *1563:RESET_B *100:10 7.46663e-05
8 *1563:RESET_B *139:14 9.83388e-05
9 *1563:RESET_B *190:67 0.000940998
10 *1563:RESET_B *203:31 6.26918e-05
11 *1563:RESET_B *210:22 0.000539892
12 *1563:RESET_B *225:30 0.000745225
13 *51:10 *179:148 0.000734039
14 *51:10 *186:70 0
15 *51:10 *186:72 0
16 *51:10 *187:138 5.25862e-06
17 *51:10 *191:30 0.000112793
18 *44:26 *1563:RESET_B 0.000223303
19 *50:10 *51:10 0.00141472
*RES
1 *1529:Y *51:10 36.3357 
2 *51:10 *1563:RESET_B 45.5 
*END

*D_NET *52 0.00495661
*CONN
*I *1564:RESET_B I *D sky130_fd_sc_hd__dfrtp_4
*I *1530:Y O *D sky130_fd_sc_hd__inv_2
*CAP
1 *1564:RESET_B 0.000986914
2 *1530:Y 0.000986914
3 *1564:RESET_B *1568:RESET_B 0.000175512
4 *1564:RESET_B *1579:RESET_B 0.000766626
5 *1564:RESET_B *98:28 0
6 *1564:RESET_B *129:64 0
7 *1564:RESET_B *181:24 0.000139625
8 *1564:RESET_B *189:28 0.000119303
9 *1564:RESET_B *202:49 0
10 *1564:RESET_B *210:14 7.83587e-05
11 *1564:RESET_B *211:85 2.09826e-05
12 *1564:RESET_B *221:74 0
13 *25:10 *1564:RESET_B 0.00168238
*RES
1 *1530:Y *1564:RESET_B 43.8 
*END

*D_NET *53 0.00465419
*CONN
*I *1565:RESET_B I *D sky130_fd_sc_hd__dfrtp_2
*I *1531:Y O *D sky130_fd_sc_hd__inv_2
*CAP
1 *1565:RESET_B 0.00101182
2 *1531:Y 0.00101182
3 *1565:RESET_B *1466:C 0.000303294
4 *1565:RESET_B *1469:B 0.000202204
5 *1565:RESET_B *1504:A 1.05521e-05
6 *1565:RESET_B *54:18 0.000174152
7 *1565:RESET_B *133:22 0.000165771
8 *1565:RESET_B *155:57 5.32956e-05
9 *1565:RESET_B *168:8 0.000316746
10 *1565:RESET_B *168:14 0.000489015
11 *1565:RESET_B *179:100 9.25014e-06
12 *1565:RESET_B *179:108 0.000546215
13 *1565:RESET_B *216:22 9.24375e-05
14 *1565:RESET_B *222:10 0
15 *1584:D *1565:RESET_B 0.000267627
*RES
1 *1531:Y *1565:RESET_B 45.4696 
*END

*D_NET *54 0.0222679
*CONN
*I *1566:RESET_B I *D sky130_fd_sc_hd__dfrtp_2
*I *1532:Y O *D sky130_fd_sc_hd__inv_2
*CAP
1 *1566:RESET_B 0.00117676
2 *1532:Y 0.00458949
3 *54:18 0.00576624
4 *1566:RESET_B *1392:A 1.21732e-06
5 *1566:RESET_B *1451:B 4.51632e-05
6 *1566:RESET_B *1520:A 0
7 *1566:RESET_B *1573:RESET_B 0.000240079
8 *1566:RESET_B *79:20 0
9 *1566:RESET_B *94:30 4.26897e-05
10 *1566:RESET_B *120:42 0.000685161
11 *1566:RESET_B *165:16 0.000824847
12 *1566:RESET_B *166:26 6.15987e-05
13 *1566:RESET_B *209:60 0
14 *54:18 *1466:C 0.000311015
15 *54:18 *1469:B 0.000195547
16 *54:18 *1504:A 0.00127582
17 *54:18 *1596:A 5.22477e-05
18 *54:18 *1597:A 0.000335234
19 *54:18 *95:55 0.000287454
20 *54:18 *102:26 0.0012197
21 *54:18 *115:14 0.000229718
22 *54:18 *115:87 0.000135563
23 *54:18 *122:32 1.47728e-05
24 *54:18 *124:14 5.33005e-05
25 *54:18 *144:14 0.00028777
26 *54:18 *158:22 0.0026637
27 *54:18 *179:75 0.000217427
28 *54:18 *191:30 0
29 *54:18 *203:18 0.000187873
30 *54:18 *203:31 0.00012384
31 *54:18 *206:14 0.000134
32 *54:18 *206:26 0.000110514
33 *54:18 *221:74 0.000106202
34 *54:18 *222:30 1.91871e-05
35 *1565:RESET_B *54:18 0.000174152
36 *1566:D *54:18 0.000490361
37 *1580:D *54:18 0.000104041
38 *50:10 *54:18 0.000105188
*RES
1 *1532:Y *54:18 49.8715 
2 *54:18 *1566:RESET_B 23.7124 
*END

*D_NET *55 0.0073786
*CONN
*I *1567:RESET_B I *D sky130_fd_sc_hd__dfrtp_2
*I *1533:Y O *D sky130_fd_sc_hd__inv_2
*CAP
1 *1567:RESET_B 0
2 *1533:Y 3.74435e-05
3 *55:20 0.00280059
4 *55:10 0.00283803
5 *55:10 *1398:B2 0.000103715
6 *55:10 *227:97 5.13545e-05
7 *55:20 *1392:C 5.51386e-05
8 *55:20 *1462:B 0
9 *55:20 *1520:A 0.000228508
10 *55:20 *120:42 0.000241294
11 *55:20 *187:69 0.000308595
12 *55:20 *209:60 0
13 *46:12 *55:20 9.9129e-05
14 *47:20 *55:20 0.000614803
*RES
1 *1533:Y *55:10 19.6393 
2 *55:10 *55:20 49.1786 
3 *55:20 *1567:RESET_B 4.5 
*END

*D_NET *56 0.0152305
*CONN
*I *1568:RESET_B I *D sky130_fd_sc_hd__dfrtp_4
*I *1534:Y O *D sky130_fd_sc_hd__inv_2
*CAP
1 *1568:RESET_B 0.00058289
2 *1534:Y 0.000112655
3 *56:20 0.00179497
4 *56:12 0.00423981
5 *56:10 0.00314038
6 *1568:RESET_B *189:14 0
7 *1568:RESET_B *189:28 0.000265085
8 *1568:RESET_B *201:61 0.000406624
9 *1568:RESET_B *221:74 0
10 *1568:RESET_B *225:14 0.000180438
11 *56:12 *133:22 0.000795929
12 *56:20 *1457:A1 0.00045575
13 *56:20 *1457:A2 0
14 *56:20 *72:10 0.00142916
15 *56:20 *195:16 0.000171143
16 *56:20 *201:61 0.000601238
17 *56:20 *201:72 0.000344797
18 *1564:RESET_B *1568:RESET_B 0.000175512
19 *1565:D *56:12 0.000481594
20 *11:23 *56:10 0
21 *25:10 *1568:RESET_B 5.25252e-05
*RES
1 *1534:Y *56:10 20.2464 
2 *56:10 *56:12 53.5179 
3 *56:12 *56:20 47.2143 
4 *56:20 *1568:RESET_B 23.2768 
*END

*D_NET *57 0.0185698
*CONN
*I *1569:RESET_B I *D sky130_fd_sc_hd__dfrtp_2
*I *1535:Y O *D sky130_fd_sc_hd__inv_2
*CAP
1 *1569:RESET_B 0.000791734
2 *1535:Y 0.00108721
3 *57:16 0.00287619
4 *57:12 0.00317166
5 *1569:RESET_B *1526:A 0.000484487
6 *1569:RESET_B *1569:CLK 0.00150673
7 *1569:RESET_B *83:12 0.000100248
8 *1569:RESET_B *190:31 0.000144708
9 *1569:RESET_B *190:67 2.20282e-05
10 *1569:RESET_B *196:31 5.74499e-06
11 *1569:RESET_B *196:43 0.000258959
12 *1569:RESET_B *213:33 4.28365e-05
13 *1569:RESET_B *213:61 9.66735e-06
14 *57:12 *99:10 0.00184817
15 *57:12 *197:10 0.00173513
16 *57:16 *1439:C 0.000581184
17 *57:16 *1539:A 9.83442e-05
18 *57:16 *1572:RESET_B 0.000463337
19 *57:16 *1588:RESET_B 1.98839e-05
20 *57:16 *120:30 0.000154057
21 *57:16 *190:35 5.33005e-05
22 *57:16 *210:14 0.000119279
23 *57:16 *226:31 0.0024837
24 *1579:D *57:16 2.59355e-05
25 *24:14 *57:16 0.000104906
26 *35:16 *57:12 6.54117e-05
27 *35:18 *57:12 2.68558e-05
28 *42:8 *57:16 2.23592e-05
29 *46:24 *1569:RESET_B 5.69386e-05
30 *48:12 *1569:RESET_B 0.000208868
*RES
1 *1535:Y *57:12 48.4964 
2 *57:12 *57:16 48.9821 
3 *57:16 *1569:RESET_B 25.7054 
*END

*D_NET *58 0.0318714
*CONN
*I *1570:RESET_B I *D sky130_fd_sc_hd__dfrtp_4
*I *1537:Y O *D sky130_fd_sc_hd__inv_2
*CAP
1 *1570:RESET_B 0.000387399
2 *1537:Y 0.00868819
3 *58:20 0.00907559
4 *1570:RESET_B *1510:B 6.06756e-05
5 *1570:RESET_B *1511:C 0
6 *1570:RESET_B *1570:CLK 1.34278e-05
7 *58:20 *1398:B2 0.000142167
8 *58:20 *1507:B 0.000126169
9 *58:20 *1508:C 0.000338128
10 *58:20 *1533:A 0.000414427
11 *58:20 *1588:D 0.000120376
12 *58:20 *1588:RESET_B 0.000299021
13 *58:20 *1592:A 0.000425169
14 *58:20 *74:22 0
15 *58:20 *79:12 0.000678073
16 *58:20 *107:24 0.0015794
17 *58:20 *116:10 0.000297259
18 *58:20 *131:18 0.00067822
19 *58:20 *142:22 0.00245973
20 *58:20 *162:24 0.00301017
21 *58:20 *170:12 0.000260154
22 *58:20 *170:14 0.000432227
23 *58:20 *189:42 0.00013035
24 *58:20 *189:53 0.000366971
25 *58:20 *191:86 0.000581497
26 *58:20 *199:28 0.00022616
27 *58:20 *213:22 0.000101601
28 *58:20 *216:26 0.000119898
29 *58:20 *227:97 0.000342509
30 *11:23 *58:20 0
31 *29:8 *1570:RESET_B 0
32 *29:8 *58:20 0.00051639
*RES
1 *1537:Y *58:20 47.8444 
2 *58:20 *1570:RESET_B 14.4279 
*END

*D_NET *59 0.00831005
*CONN
*I *1571:RESET_B I *D sky130_fd_sc_hd__dfrtp_4
*I *1538:Y O *D sky130_fd_sc_hd__inv_2
*CAP
1 *1571:RESET_B 0.000525125
2 *1538:Y 0.00097816
3 *59:8 0.00150328
4 *1571:RESET_B *1517:C1 9.48865e-05
5 *1571:RESET_B *1571:CLK 9.83388e-05
6 *1571:RESET_B *97:22 0.000136443
7 *1571:RESET_B *213:61 0.000135131
8 *59:8 *1433:B 9.54798e-06
9 *59:8 *1448:B 0.000257222
10 *59:8 *95:78 0.000679017
11 *59:8 *105:44 0.000171355
12 *59:8 *110:16 0.000410614
13 *59:8 *128:20 0.000493521
14 *59:8 *147:114 7.2872e-05
15 *59:8 *147:118 0.000312729
16 *59:8 *147:145 0.000309718
17 *59:8 *180:143 0.00012001
18 *59:8 *185:35 0.00082379
19 *59:8 *185:41 0.000349011
20 *59:8 *187:48 0.000709437
21 *33:22 *59:8 0.000106109
22 *46:24 *59:8 1.37255e-05
*RES
1 *1538:Y *59:8 48.8357 
2 *59:8 *1571:RESET_B 12.0982 
*END

*D_NET *60 0.00414522
*CONN
*I *1572:RESET_B I *D sky130_fd_sc_hd__dfrtp_2
*I *1539:Y O *D sky130_fd_sc_hd__inv_2
*CAP
1 *1572:RESET_B 0.00143487
2 *1539:Y 0.00143487
3 *1572:RESET_B *72:10 0.000260322
4 *1572:RESET_B *120:30 0.000139293
5 *1572:RESET_B *201:46 0.000174682
6 *1572:RESET_B *201:61 0.000182909
7 *1579:D *1572:RESET_B 5.49489e-05
8 *57:16 *1572:RESET_B 0.000463337
*RES
1 *1539:Y *1572:RESET_B 38.7107 
*END

*D_NET *61 0.0181339
*CONN
*I *1573:RESET_B I *D sky130_fd_sc_hd__dfrtp_1
*I *1540:Y O *D sky130_fd_sc_hd__inv_2
*CAP
1 *1573:RESET_B 0.00264393
2 *1540:Y 0.000518922
3 *61:10 0.00482691
4 *61:8 0.00270189
5 *1573:RESET_B *1392:A 0.000972193
6 *1573:RESET_B *1462:B 0
7 *1573:RESET_B *1591:CLK 0.000126306
8 *1573:RESET_B *1591:D 5.40397e-05
9 *1573:RESET_B *1591:RESET_B 0.000145421
10 *1573:RESET_B *79:20 2.94853e-05
11 *1573:RESET_B *120:42 1.48029e-05
12 *1573:RESET_B *130:22 0
13 *1573:RESET_B *165:16 0.000146746
14 *1573:RESET_B *166:26 9.54798e-06
15 *1573:RESET_B *204:10 5.52302e-05
16 *61:8 *195:16 0.000600059
17 *61:10 *132:16 0.00496338
18 *61:10 *195:18 8.49977e-05
19 seg[2] *1573:RESET_B 0
20 *1566:RESET_B *1573:RESET_B 0.000240079
*RES
1 *1540:Y *61:8 20.4964 
2 *61:8 *61:10 64.6339 
3 *61:10 *1573:RESET_B 34.5883 
*END

*D_NET *62 0.0162958
*CONN
*I *1574:RESET_B I *D sky130_fd_sc_hd__dfrtp_1
*I *1541:Y O *D sky130_fd_sc_hd__inv_2
*CAP
1 *1574:RESET_B 0.000115832
2 *1541:Y 0.000345933
3 *62:10 0.00214067
4 *62:8 0.00237077
5 *1574:RESET_B *205:14 7.70134e-05
6 *62:8 *1457:A2 0.000226405
7 *62:8 *199:36 0.000237063
8 *62:10 *1608:A 0
9 *62:10 *78:10 0.00530199
10 *62:10 *132:16 0.00068323
11 *62:10 *195:18 0.0046084
12 *1575:D *62:10 0
13 *35:16 *62:10 0.000188531
*RES
1 *1541:Y *62:8 20.9071 
2 *62:8 *62:10 84.2143 
3 *62:10 *1574:RESET_B 6.61607 
*END

*D_NET *63 0.0006101
*CONN
*I *1575:RESET_B I *D sky130_fd_sc_hd__dfrtp_2
*I *1542:Y O *D sky130_fd_sc_hd__inv_2
*CAP
1 *1575:RESET_B 0.00014966
2 *1542:Y 0.00014966
3 *1575:RESET_B *1457:A2 0
4 *1575:RESET_B *1540:A 0.000208075
5 *1575:RESET_B *129:97 0.000102705
*RES
1 *1542:Y *1575:RESET_B 21.4964 
*END

*D_NET *64 0.00212131
*CONN
*I *1576:RESET_B I *D sky130_fd_sc_hd__dfrtp_4
*I *1543:Y O *D sky130_fd_sc_hd__inv_2
*CAP
1 *1576:RESET_B 0.00032509
2 *1543:Y 0.00032509
3 *1576:RESET_B *1478:A 5.60672e-05
4 *1576:RESET_B *1478:B 5.33005e-05
5 *1576:RESET_B *149:6 4.16044e-05
6 *1576:RESET_B *152:18 0.000842004
7 *1576:RESET_B *180:143 0.000394502
8 *1576:D *1576:RESET_B 8.3648e-05
*RES
1 *1543:Y *1576:RESET_B 18.8089 
*END

*D_NET *65 0.0151228
*CONN
*I *1577:RESET_B I *D sky130_fd_sc_hd__dfrtp_4
*I *1544:Y O *D sky130_fd_sc_hd__inv_2
*CAP
1 *1577:RESET_B 0.000726972
2 *1544:Y 0.000882834
3 *65:24 0.00172326
4 *65:14 0.00187912
5 *1577:RESET_B *1451:A 0.000151046
6 *1577:RESET_B *1482:B 0.000377967
7 *1577:RESET_B *102:26 0.000183617
8 *1577:RESET_B *196:43 4.038e-06
9 *1577:RESET_B *202:14 8.00569e-05
10 *1577:RESET_B *208:14 9.83388e-05
11 *1577:RESET_B *226:31 0.000130221
12 *65:14 *1448:A 0.000507868
13 *65:14 *1469:B 0.000988958
14 *65:14 *1481:A 0.000978608
15 *65:14 *141:28 2.42516e-05
16 *65:14 *147:145 0.000235197
17 *65:14 *208:94 5.7758e-05
18 *65:14 *219:49 0.00111661
19 *65:14 *222:30 0.000612282
20 *65:24 *1410:B 0.000197894
21 *65:24 *1410:D 0.000594034
22 *65:24 *1438:A 0.000315687
23 *65:24 *1447:A 5.33005e-05
24 *65:24 *1447:B 9.41642e-05
25 *65:24 *85:31 6.28247e-05
26 *65:24 *126:16 0.000261801
27 *65:24 *134:26 0.00012401
28 *65:24 *134:40 0.000360109
29 *65:24 *185:45 0.000133499
30 *65:24 *204:38 0.000517093
31 *65:24 *222:30 0.000169655
32 *65:24 *222:34 2.79421e-05
33 *42:10 *1577:RESET_B 0.000547842
34 *47:39 *1577:RESET_B 0.000168197
35 *47:56 *1577:RESET_B 4.75956e-06
36 *47:79 *65:24 0.000730945
*RES
1 *1544:Y *65:14 47.6214 
2 *65:14 *65:24 41.6429 
3 *65:24 *1577:RESET_B 22.5446 
*END

*D_NET *66 0.0207756
*CONN
*I *1578:RESET_B I *D sky130_fd_sc_hd__dfrtp_4
*I *1545:Y O *D sky130_fd_sc_hd__inv_2
*CAP
1 *1578:RESET_B 0.00142526
2 *1545:Y 0.000300956
3 *66:20 0.00281265
4 *66:10 0.00316026
5 *66:8 0.00207383
6 *1578:RESET_B *1430:B 3.8524e-05
7 *1578:RESET_B *1486:A3 0.000136182
8 *1578:RESET_B *114:12 0.00254667
9 *66:8 *1545:A 0.000116295
10 *66:8 *156:6 9.41642e-05
11 *66:8 *156:25 2.39298e-05
12 *66:10 *1452:C 5.09595e-05
13 *66:10 *96:33 3.54522e-05
14 *66:10 *114:24 0.000275835
15 *66:10 *120:30 0.000288141
16 *66:10 *134:14 0.000331593
17 *66:10 *136:24 0.000476818
18 *66:10 *142:28 0.00141522
19 *66:10 *143:10 0.00110457
20 *66:10 *156:10 0.000116844
21 *66:10 *190:14 1.03483e-05
22 *66:10 *196:43 9.79679e-05
23 *66:10 *203:88 6.8646e-06
24 *66:10 *205:14 0.000651458
25 *66:10 *205:61 0.000724382
26 *66:10 *208:32 0.00196763
27 *66:20 *1462:B 0
28 *66:20 *145:8 0.000391976
29 *66:20 *209:60 0
30 *66:20 *218:10 0
31 *1561:RESET_B *66:10 0.000100823
32 *42:10 *66:10 0
*RES
1 *1545:Y *66:8 17.6214 
2 *66:8 *66:10 56.8929 
3 *66:10 *66:20 34.75 
4 *66:20 *1578:RESET_B 41.8839 
*END

*D_NET *67 0.0113336
*CONN
*I *1579:RESET_B I *D sky130_fd_sc_hd__dfrtp_2
*I *1546:Y O *D sky130_fd_sc_hd__inv_2
*CAP
1 *1579:RESET_B 0.00118884
2 *1546:Y 0.00305856
3 *67:10 0.0042474
4 *1579:RESET_B *77:12 0
5 *1579:RESET_B *129:64 0
6 *1579:RESET_B *130:22 6.39829e-05
7 *1579:RESET_B *200:57 0
8 *1579:RESET_B *200:88 0
9 *1579:RESET_B *202:49 0
10 *1579:RESET_B *211:85 0.00103719
11 *1579:RESET_B *221:12 0
12 *1579:RESET_B *221:45 0
13 *67:10 *1407:B 9.84673e-05
14 *67:10 *1459:C 0.000222473
15 *67:10 *1566:CLK 9.53323e-05
16 *67:10 *180:29 5.66971e-05
17 *67:10 *191:30 0.000267088
18 *1564:RESET_B *1579:RESET_B 0.000766626
19 *25:10 *1579:RESET_B 0.000230898
*RES
1 *1546:Y *67:10 46.9429 
2 *67:10 *1579:RESET_B 38.5714 
*END

*D_NET *68 0.0155378
*CONN
*I *1580:RESET_B I *D sky130_fd_sc_hd__dfrtp_2
*I *1548:Y O *D sky130_fd_sc_hd__inv_2
*CAP
1 *1580:RESET_B 0.00163191
2 *1548:Y 0.000143642
3 *68:10 0.00316746
4 *68:8 0.00167919
5 *1580:RESET_B *1433:A 0.000141941
6 *1580:RESET_B *1433:B 0.000392107
7 *1580:RESET_B *1444:A 0.000136676
8 *1580:RESET_B *116:10 0.000225984
9 *1580:RESET_B *124:14 0.000200689
10 *1580:RESET_B *175:89 0.000958412
11 *1580:RESET_B *179:100 0.0002219
12 *1580:RESET_B *179:132 0.00103488
13 *68:8 *1436:A 6.34664e-05
14 *68:10 *1402:B 0
15 *68:10 *1485:B1 0.000801271
16 *68:10 *1485:C1 0.00212616
17 *68:10 *84:53 0
18 *68:10 *115:127 0.000517445
19 *68:10 *116:10 5.40984e-05
20 *68:10 *148:20 0.00104845
21 *68:10 *181:103 0.000190067
22 *68:10 *191:86 0.000802081
*RES
1 *1548:Y *68:8 15.5679 
2 *68:8 *68:10 55.375 
3 *68:10 *1580:RESET_B 43.5982 
*END

*D_NET *69 0.00322109
*CONN
*I *1581:RESET_B I *D sky130_fd_sc_hd__dfrtp_2
*I *1549:Y O *D sky130_fd_sc_hd__inv_2
*CAP
1 *1581:RESET_B 0.000950028
2 *1549:Y 0.000950028
3 *1581:RESET_B *1408:C 0.000646014
4 *1581:RESET_B *1414:A1 0.000182137
5 *1581:RESET_B *1433:B 0.000492884
6 *1581:RESET_B *1474:D 0
7 *1581:RESET_B *146:10 0
*RES
1 *1549:Y *1581:RESET_B 35.6393 
*END

*D_NET *70 0.0121768
*CONN
*I *1582:RESET_B I *D sky130_fd_sc_hd__dfrtp_1
*I *1550:Y O *D sky130_fd_sc_hd__inv_2
*CAP
1 *1582:RESET_B 0
2 *1550:Y 0.000100026
3 *70:10 0.00229554
4 *70:8 0.00239557
5 *70:8 *175:70 0.000139485
6 *70:10 *1479:C 7.8327e-05
7 *70:10 *1524:B1_N 0.000368096
8 *70:10 *1588:D 0
9 *70:10 *1592:A 0
10 *70:10 *74:22 0.000633533
11 *70:10 *96:10 0.000350495
12 *70:10 *107:24 0.000392493
13 *70:10 *181:18 0.000571218
14 *70:10 *181:22 0.000121606
15 *70:10 *196:31 0.000137005
16 *70:10 *212:63 0.00259916
17 *70:10 *212:71 0.00152584
18 *70:10 *216:41 0.00046845
19 *70:10 *227:97 0
*RES
1 *1550:Y *70:8 15.1571 
2 *70:8 *70:10 67.8214 
3 *70:10 *1582:RESET_B 4.5 
*END

*D_NET *71 0.0051156
*CONN
*I *1583:RESET_B I *D sky130_fd_sc_hd__dfrtp_1
*I *1551:Y O *D sky130_fd_sc_hd__inv_2
*CAP
1 *1583:RESET_B 0.00185281
2 *1551:Y 0.00185281
3 *1583:RESET_B *1452:C 0.000151417
4 *1583:RESET_B *1509:A 2.59355e-05
5 *1583:RESET_B *1595:A 0.000111407
6 *1583:RESET_B *114:24 0.000137639
7 *1583:RESET_B *171:12 0.000638448
8 *1583:RESET_B *206:40 0.000282426
9 *1583:D *1583:RESET_B 2.84109e-05
10 *48:16 *1583:RESET_B 3.42904e-05
*RES
1 *1551:Y *1583:RESET_B 42.7911 
*END

*D_NET *72 0.0122326
*CONN
*I *1584:RESET_B I *D sky130_fd_sc_hd__dfrtp_4
*I *1552:Y O *D sky130_fd_sc_hd__inv_2
*CAP
1 *1584:RESET_B 0.000692306
2 *1552:Y 0.000626736
3 *72:10 0.00258948
4 *72:8 0.00252391
5 *1584:RESET_B *107:24 0.00013423
6 *72:8 *203:18 4.4523e-05
7 *72:10 *1397:B 0.000144732
8 *72:10 *1421:A 0.000683507
9 *72:10 *75:12 0.000611942
10 *72:10 *107:24 0
11 *72:10 *161:24 0.000149646
12 *72:10 *181:32 0.000447984
13 *72:10 *191:8 0
14 *72:10 *201:61 0.000222252
15 *72:10 *211:12 0.000914571
16 *72:10 *211:18 0.000757275
17 *1572:RESET_B *72:10 0.000260322
18 *56:20 *72:10 0.00142916
*RES
1 *1552:Y *72:8 20.4964 
2 *72:8 *72:10 60.5357 
3 *72:10 *1584:RESET_B 14.8304 
*END

*D_NET *73 0.0107974
*CONN
*I *1585:RESET_B I *D sky130_fd_sc_hd__dfrtp_4
*I *1553:Y O *D sky130_fd_sc_hd__inv_2
*CAP
1 *1585:RESET_B 0.00143424
2 *1553:Y 0.000836822
3 *73:12 0.00227106
4 *1585:RESET_B *1489:A 0.000356261
5 *1585:RESET_B *1585:CLK 2.77289e-05
6 *1585:RESET_B *1601:A 0.000179645
7 *1585:RESET_B *157:8 0.000864898
8 *1585:RESET_B *184:24 0.000141326
9 *1585:RESET_B *217:10 0.000104238
10 *1585:RESET_B *217:12 0.000126702
11 *1585:RESET_B *217:14 0.000247142
12 *1585:RESET_B *218:20 0.000141975
13 *73:12 *1396:A 0.000188942
14 *73:12 *1586:RESET_B 0.000154276
15 *73:12 *111:6 0.00245713
16 *73:12 *119:10 0.000494347
17 *73:12 *180:8 0.000630754
18 *1585:D *1585:RESET_B 0.000139907
*RES
1 *1553:Y *73:12 48.3357 
2 *73:12 *1585:RESET_B 28.2768 
*END

*D_NET *74 0.0201093
*CONN
*I *1586:RESET_B I *D sky130_fd_sc_hd__dfrtp_1
*I *1554:Y O *D sky130_fd_sc_hd__inv_2
*CAP
1 *1586:RESET_B 0.00051091
2 *1554:Y 0.00595823
3 *74:22 0.00646914
4 *1586:RESET_B *111:6 0.000303801
5 *1586:RESET_B *119:10 0
6 *1586:RESET_B *209:60 0.000239092
7 *1586:RESET_B *218:20 0.000106799
8 *74:22 *1427:A 0.000131609
9 *74:22 *1494:C 0.000160588
10 *74:22 *1588:RESET_B 0.000309669
11 *74:22 *96:10 0.000325748
12 *74:22 *107:24 0.000477161
13 *74:22 *115:54 0.000152412
14 *74:22 *137:24 0
15 *74:22 *142:22 4.98245e-05
16 *74:22 *160:10 0.000399731
17 *74:22 *161:24 0.000990562
18 *74:22 *162:24 0.000245553
19 *74:22 *168:33 0.000175428
20 *74:22 *170:12 0.000311721
21 *74:22 *183:16 0.000118712
22 *74:22 *207:14 5.196e-05
23 *74:22 *207:30 0.000176783
24 *74:22 *212:63 0.00025254
25 *74:22 *212:71 0.000256457
26 *74:22 *213:81 0.000135623
27 *74:22 *214:10 0.000179097
28 *74:22 *217:29 0.000117148
29 *11:23 *74:22 2.05739e-05
30 *34:18 *74:22 0.00031877
31 *34:30 *74:22 0.000107321
32 *39:8 *74:22 0.000268501
33 *58:20 *74:22 0
34 *70:10 *74:22 0.000633533
35 *73:12 *1586:RESET_B 0.000154276
*RES
1 *1554:Y *74:22 46.3589 
2 *74:22 *1586:RESET_B 17.125 
*END

*D_NET *75 0.00652744
*CONN
*I *1587:RESET_B I *D sky130_fd_sc_hd__dfrtp_4
*I *1555:Y O *D sky130_fd_sc_hd__inv_2
*CAP
1 *1587:RESET_B 0.000165109
2 *1555:Y 0.00142776
3 *75:12 0.00159287
4 *1587:RESET_B *1522:C 0.000168878
5 *1587:RESET_B *156:25 8.84207e-05
6 *75:12 *1399:B 7.19722e-05
7 *75:12 *1440:B 8.97396e-05
8 *75:12 *90:14 0.000976778
9 *75:12 *144:14 0.000720084
10 *75:12 *181:28 0.000168939
11 *75:12 *181:32 5.58941e-05
12 *75:12 *211:18 0.000218583
13 *31:12 *1587:RESET_B 0.000170467
14 *72:10 *75:12 0.000611942
*RES
1 *1555:Y *75:12 48.6214 
2 *75:12 *1587:RESET_B 12.9554 
*END

*D_NET *76 0.0146325
*CONN
*I *1588:RESET_B I *D sky130_fd_sc_hd__dfrtp_4
*I *1556:Y O *D sky130_fd_sc_hd__inv_2
*CAP
1 *1588:RESET_B 0.00163159
2 *1556:Y 0.000998098
3 *76:28 0.00297811
4 *76:20 0.00234461
5 *1588:RESET_B *1492:B 8.79458e-05
6 *1588:RESET_B *1507:B 0.00048846
7 *1588:RESET_B *1517:D1 0.00097461
8 *1588:RESET_B *1588:D 0
9 *1588:RESET_B *83:12 9.56645e-05
10 *1588:RESET_B *170:12 0.000392739
11 *1588:RESET_B *179:28 0.00030241
12 *1588:RESET_B *187:14 7.86737e-05
13 *1588:RESET_B *189:42 0.000845387
14 *1588:RESET_B *190:35 0.000340849
15 *1588:RESET_B *191:84 9.35114e-06
16 *1588:RESET_B *226:12 0.000172092
17 *76:20 *1410:B 4.36436e-05
18 *76:20 *1411:C 0.000413893
19 *76:20 *1482:B 1.90936e-05
20 *76:20 *130:22 1.90936e-05
21 *76:20 *142:22 9.31823e-05
22 *76:20 *156:10 4.21517e-05
23 *76:28 *1468:A 0.000141729
24 *76:28 *92:20 0.000123767
25 *76:28 *141:10 9.74665e-05
26 *76:28 *190:31 0.000125427
27 *76:28 *196:43 0.000640507
28 *76:28 *205:61 5.50052e-05
29 *47:56 *76:20 0.000448347
30 *57:16 *1588:RESET_B 1.98839e-05
31 *58:20 *1588:RESET_B 0.000299021
32 *74:22 *1588:RESET_B 0.000309669
*RES
1 *1556:Y *76:20 34.7454 
2 *76:20 *76:28 31.7143 
3 *76:28 *1588:RESET_B 47.7589 
*END

*D_NET *77 0.0116863
*CONN
*I *1589:RESET_B I *D sky130_fd_sc_hd__dfrtp_4
*I *1557:Y O *D sky130_fd_sc_hd__inv_2
*CAP
1 *1589:RESET_B 0.00158389
2 *1557:Y 0.000862622
3 *77:12 0.00244652
4 *1589:RESET_B *1512:A 0.00110465
5 *1589:RESET_B *79:20 0.000679929
6 *1589:RESET_B *166:26 0.000339399
7 *1589:RESET_B *183:6 0.000333786
8 *1589:RESET_B *183:8 0.000345773
9 *1589:RESET_B *188:20 9.41642e-05
10 *1589:RESET_B *190:14 0.00039475
11 *1589:RESET_B *190:18 0.000629819
12 *1589:RESET_B *197:8 0.000194088
13 *77:12 *129:64 0.000507757
14 *77:12 *200:57 0.000766856
15 *77:12 *200:88 8.25843e-06
16 *77:12 *221:8 9.07247e-05
17 *77:12 *221:12 3.45894e-05
18 *1579:RESET_B *77:12 0
19 *37:10 *1589:RESET_B 0.00126874
*RES
1 *1557:Y *77:12 36.3179 
2 *77:12 *1589:RESET_B 44.5625 
*END

*D_NET *78 0.013896
*CONN
*I *1590:RESET_B I *D sky130_fd_sc_hd__dfrtp_4
*I *1558:Y O *D sky130_fd_sc_hd__inv_2
*CAP
1 *1590:RESET_B 0.000449829
2 *1558:Y 0.000499874
3 *78:10 0.0018553
4 *78:8 0.00190534
5 *1590:RESET_B *189:14 0.000180072
6 seg[2] *78:10 0.000212522
7 seg[3] *78:10 2.06178e-05
8 seg[5] *78:10 2.06178e-05
9 *26:16 *78:10 0.0016909
10 *35:16 *78:10 0.000511519
11 *35:18 *78:10 0.00124746
12 *62:10 *78:10 0.00530199
*RES
1 *1558:Y *78:8 19.2643 
2 *78:8 *78:10 66.9107 
3 *78:10 *1590:RESET_B 11.6875 
*END

*D_NET *79 0.018506
*CONN
*I *1591:RESET_B I *D sky130_fd_sc_hd__dfrtp_4
*I *1559:Y O *D sky130_fd_sc_hd__inv_2
*CAP
1 *1591:RESET_B 0.000216301
2 *1559:Y 0.000642653
3 *79:20 0.00343769
4 *79:12 0.00405329
5 *79:8 0.00147456
6 *79:8 *1559:A 0.000270116
7 *79:8 *148:20 3.06878e-06
8 *79:8 *181:103 0.000307343
9 *79:12 *131:18 0.000778459
10 *79:12 *170:12 0.000531468
11 *79:12 *170:14 0.0012869
12 *79:12 *191:86 0.000306808
13 *79:20 *1498:A1 0.000179104
14 *79:20 *1512:A 0.000153182
15 *79:20 *1520:A 0.000121672
16 *79:20 *1589:D 7.14882e-05
17 *79:20 *183:8 1.23304e-05
18 *79:20 *183:10 0.000200842
19 *79:20 *183:16 2.56723e-05
20 *79:20 *188:20 9.56645e-05
21 *79:20 *209:60 0.000303168
22 *1566:RESET_B *79:20 0
23 *1573:RESET_B *1591:RESET_B 0.000145421
24 *1573:RESET_B *79:20 2.94853e-05
25 *1589:RESET_B *79:20 0.000679929
26 *29:8 *79:12 0.00250135
27 *58:20 *79:12 0.000678073
*RES
1 *1559:Y *79:8 22.1393 
2 *79:8 *79:12 43.4821 
3 *79:12 *79:20 49.75 
4 *79:20 *1591:RESET_B 3.08036 
*END

*D_NET *80 0.0134032
*CONN
*I *1588:D I *D sky130_fd_sc_hd__dfrtp_4
*I *1404:Y O *D sky130_fd_sc_hd__a21oi_1
*CAP
1 *1588:D 0.00110937
2 *1404:Y 0.00297002
3 *80:16 0.00407939
4 *1588:D *1507:B 0.000173941
5 *1588:D *1592:A 0.000454892
6 *1588:D *142:22 0.000261134
7 *1588:D *189:42 0.000346173
8 *1588:D *191:84 1.29901e-05
9 *1588:D *207:14 9.60337e-06
10 *1588:D *216:41 0.00214737
11 *1588:D *226:12 0.000284299
12 *80:16 *94:30 0.000542593
13 *80:16 *95:32 0.000307542
14 *80:16 *127:24 0
15 *80:16 *135:14 0.000332329
16 *80:16 *204:10 1.67662e-05
17 *80:16 *210:36 7.55769e-05
18 *80:16 *218:20 0.000112073
19 *1588:RESET_B *1588:D 0
20 *33:22 *80:16 4.67151e-05
21 *58:20 *1588:D 0.000120376
22 *70:10 *1588:D 0
*RES
1 *1404:Y *80:16 30.5631 
2 *80:16 *1588:D 49.2196 
*END

*D_NET *81 0.0173348
*CONN
*I *1589:D I *D sky130_fd_sc_hd__dfrtp_4
*I *1402:Y O *D sky130_fd_sc_hd__nor2_1
*CAP
1 *1589:D 0.00190426
2 *1402:Y 0.000997216
3 *81:14 0.00308929
4 *81:12 0.00218225
5 *1589:D *1498:A1 1.21258e-05
6 *1589:D *183:10 6.71662e-05
7 *1589:D *183:16 0.000133298
8 *81:12 *91:10 0
9 *81:12 *117:10 1.71615e-05
10 *81:12 *169:10 0
11 *81:12 *175:70 0.000347347
12 *81:12 *199:16 0.00125328
13 *81:14 *1435:B 0.000694595
14 *81:14 *84:34 0.00220392
15 *81:14 *117:10 0.00102173
16 *81:14 *148:10 0.00309967
17 *81:14 *159:8 3.41848e-05
18 *81:14 *169:10 0
19 *1508:A *81:12 6.62773e-05
20 *36:12 *81:12 0.000139485
21 *79:20 *1589:D 7.14882e-05
*RES
1 *1402:Y *81:12 36.4518 
2 *81:12 *81:14 51.2768 
3 *81:14 *1589:D 34.7866 
*END

*D_NET *82 0.00832249
*CONN
*I *1590:D I *D sky130_fd_sc_hd__dfrtp_4
*I *1400:X O *D sky130_fd_sc_hd__clkbuf_1
*CAP
1 *1590:D 0
2 *1400:X 0
3 *82:12 0.00162645
4 *82:6 0.00162645
5 *82:12 *1400:A 8.24378e-05
6 *82:12 *1590:CLK 7.2156e-05
7 *82:12 *87:66 0.000773989
8 *82:12 *98:28 0.00017309
9 *82:12 *98:37 0.00239663
10 *82:12 *130:22 0.000207128
11 *82:12 *144:14 0
12 *82:12 *158:22 0.000568154
13 *82:12 *203:31 0.000272069
14 *82:12 *206:26 0.000523941
15 *1580:D *82:12 0
*RES
1 *1400:X *82:6 13.8 
2 *82:6 *82:12 49.7857 
3 *82:12 *1590:D 9.3 
*END

*D_NET *83 0.0081969
*CONN
*I *1591:D I *D sky130_fd_sc_hd__dfrtp_4
*I *1394:Y O *D sky130_fd_sc_hd__xnor2_1
*CAP
1 *1591:D 0.00140231
2 *1394:Y 0.000769924
3 *83:12 0.00217223
4 *1591:D *1591:CLK 0.000359087
5 *1591:D *163:16 3.06878e-06
6 *1591:D *183:96 0.000111376
7 *1591:D *183:103 9.88401e-05
8 *1591:D *210:36 0.000223675
9 *83:12 *93:51 0.000103363
10 *83:12 *175:18 0.000869243
11 *83:12 *183:96 8.22103e-05
12 *83:12 *190:31 0.000182698
13 *83:12 *213:61 0.000439941
14 *83:12 *214:37 0.00112899
15 *1569:RESET_B *83:12 0.000100248
16 *1573:RESET_B *1591:D 5.40397e-05
17 *1588:RESET_B *83:12 9.56645e-05
*RES
1 *1394:Y *83:12 41.2286 
2 *83:12 *1591:D 27.1214 
*END

*D_NET *84 0.029081
*CONN
*I *1398:B1 I *D sky130_fd_sc_hd__o2bb2a_1
*I *1402:A I *D sky130_fd_sc_hd__nor2_1
*I *1393:B I *D sky130_fd_sc_hd__nand2_1
*I *1392:X O *D sky130_fd_sc_hd__and3_2
*CAP
1 *1398:B1 0
2 *1402:A 0
3 *1393:B 0.000762468
4 *1392:X 5.01898e-05
5 *84:53 0.00160172
6 *84:40 0.00299685
7 *84:34 0.00144694
8 *84:30 0.000976229
9 *84:26 0.000945459
10 *84:18 0.00305683
11 *84:10 0.00232351
12 *1393:B *189:42 0.000241454
13 *84:10 *1514:C1 0.000175103
14 *84:10 *115:30 0.000175103
15 *84:18 *1494:A 0.000639481
16 *84:18 *1494:C 0.000296554
17 *84:18 *1511:B 0.00177705
18 *84:18 *1511:C 0.000119381
19 *84:18 *105:52 0.000268577
20 *84:18 *106:14 0.00120534
21 *84:18 *155:34 0.000304387
22 *84:18 *206:40 0.000230475
23 *84:26 *1398:A1_N 0.000378316
24 *84:26 *1398:B2 4.84895e-05
25 *84:26 *1494:A 1.74352e-05
26 *84:26 *88:46 5.47223e-05
27 *84:34 *1435:B 0.000880271
28 *84:34 *117:10 0.00343716
29 *84:34 *148:10 0.00066339
30 *84:40 *169:10 0.00022604
31 *84:40 *181:103 0
32 *84:53 *1402:B 0.000138345
33 *84:53 *130:38 4.36699e-05
34 *84:53 *142:22 0
35 *84:53 *148:20 0
36 *84:53 *169:10 0.00139617
37 *84:53 *181:103 0
38 *68:10 *84:53 0
39 *81:14 *84:34 0.00220392
*RES
1 *1392:X *84:10 20.55 
2 *84:10 *84:18 49.0536 
3 *84:18 *84:26 11.375 
4 *84:26 *84:30 7.08929 
5 *84:30 *84:34 47.7321 
6 *84:34 *84:40 14.3214 
7 *84:40 *1393:B 25.425 
8 *84:40 *84:53 41.3571 
9 *84:53 *1402:A 9.3 
10 *84:26 *1398:B1 9.3 
*END

*D_NET *85 0.0107428
*CONN
*I *1399:A I *D sky130_fd_sc_hd__and2_1
*I *1394:B I *D sky130_fd_sc_hd__xnor2_1
*I *1393:Y O *D sky130_fd_sc_hd__nand2_1
*CAP
1 *1399:A 0
2 *1394:B 0.000333869
3 *1393:Y 0.00122249
4 *85:31 0.00167673
5 *85:10 0.00323309
6 *1394:B *1459:B 0
7 *1394:B *190:35 0.000186765
8 *1394:B *213:33 0.000484029
9 *1394:B *226:31 0.000185118
10 *85:10 *92:14 0.000126424
11 *85:10 *180:143 6.86693e-05
12 *85:10 *189:32 4.20544e-05
13 *85:10 *189:42 2.51343e-06
14 *85:10 *194:14 2.80742e-05
15 *85:10 *213:33 0.000192563
16 *85:31 *1438:A 0.000537597
17 *85:31 *1522:C 0.000354275
18 *85:31 *100:10 0.000288564
19 *85:31 *190:67 7.08599e-05
20 *85:31 *190:69 0.000160924
21 *85:31 *222:34 9.58181e-05
22 *85:31 *223:35 0.000181799
23 *85:31 *227:26 1.00887e-05
24 *1563:RESET_B *85:31 0.000690681
25 *1576:D *85:31 0.000506989
26 *23:16 *1394:B 0
27 *23:16 *85:10 0
28 *65:24 *85:31 6.28247e-05
*RES
1 *1393:Y *85:10 28.8 
2 *85:10 *1394:B 22.0679 
3 *85:10 *85:31 42.5179 
4 *85:31 *1399:A 9.3 
*END

*D_NET *86 0.0252652
*CONN
*I *1519:B1 I *D sky130_fd_sc_hd__a21oi_1
*I *1396:B I *D sky130_fd_sc_hd__nand2_2
*I *1395:Y O *D sky130_fd_sc_hd__nor2_2
*CAP
1 *1519:B1 0.00069604
2 *1396:B 0
3 *1395:Y 0
4 *86:18 0.00203914
5 *86:16 0.00274398
6 *86:4 0.00140087
7 *1519:B1 *1395:B 5.20298e-05
8 *1519:B1 *1474:A 0.00117559
9 *1519:B1 *1474:C 0.000226159
10 *1519:B1 *102:26 9.89991e-05
11 *1519:B1 *168:52 0.00109336
12 *1519:B1 *185:8 0.000113942
13 *1519:B1 *186:27 0.000996149
14 *1519:B1 *201:76 5.48121e-05
15 *86:16 *1424:A 8.32545e-06
16 *86:16 *103:33 0
17 *86:16 *106:55 0.000575038
18 *86:16 *132:8 0.000265445
19 *86:16 *141:28 9.91086e-05
20 *86:16 *150:8 0.000267143
21 *86:16 *155:57 0.000742354
22 *86:16 *167:24 0.000180508
23 *86:16 *212:16 0.00124284
24 *86:16 *212:30 0
25 *86:18 *1424:A 1.26112e-05
26 *86:18 *1502:A 0.000174605
27 *86:18 *87:10 0.00413016
28 *86:18 *122:12 0
29 *86:18 *122:32 0.000254287
30 *86:18 *126:16 0.000819476
31 *86:18 *155:22 0.000326775
32 *86:18 *155:57 2.03025e-05
33 *86:18 *167:24 0.000183599
34 *86:18 *222:30 1.94945e-05
35 *86:18 *222:36 0.00438918
36 *86:18 *224:12 0.000158831
37 *1505:C1 *1519:B1 0.000704
*RES
1 *1395:Y *86:4 9.3 
2 *86:4 *86:16 27.6875 
3 *86:16 *86:18 72.5268 
4 *86:18 *1396:B 13.8 
5 *86:4 *1519:B1 45.9071 
*END

*D_NET *87 0.0355973
*CONN
*I *1397:B I *D sky130_fd_sc_hd__nor2_2
*I *1403:A2 I *D sky130_fd_sc_hd__a21oi_1
*I *1524:B1_N I *D sky130_fd_sc_hd__a21boi_2
*I *1396:Y O *D sky130_fd_sc_hd__nand2_2
*CAP
1 *1397:B 0.000231814
2 *1403:A2 0
3 *1524:B1_N 0.000479095
4 *1396:Y 2.63407e-05
5 *87:66 0.00255839
6 *87:34 0.00152059
7 *87:26 0.0042908
8 *87:10 0.00263066
9 *87:8 0.00173426
10 *1397:B *1397:A 0.000510313
11 *1397:B *1421:A 0.000146392
12 *1397:B *88:8 0.000649211
13 *1524:B1_N *1524:A1 0.0005075
14 *1524:B1_N *117:8 0.00107343
15 *1524:B1_N *181:18 0.000369804
16 *1524:B1_N *212:30 0.000277321
17 *87:8 *1396:A 5.49995e-05
18 *87:10 *1497:A 5.01213e-05
19 *87:10 *1502:A 0.000234866
20 *87:10 *106:14 0
21 *87:10 *155:34 9.8045e-05
22 *87:10 *210:36 0
23 *87:10 *222:36 2.37944e-05
24 *87:10 *224:12 0.00298458
25 *87:26 *1502:A 0.00154425
26 *87:26 *106:55 9.53076e-05
27 *87:26 *167:24 0.00153803
28 *87:26 *221:74 0.00021084
29 *87:26 *224:12 0.000167801
30 *87:26 *224:18 0.000171572
31 *87:26 *225:71 0.000171572
32 *87:34 *1403:B1 0.000679754
33 *87:34 *92:14 0.000595493
34 *87:34 *187:132 0.00178098
35 *87:34 *212:16 0.000271904
36 *87:34 *212:30 8.88932e-05
37 *87:66 *1395:B 7.07067e-05
38 *87:66 *1408:B 0.00026023
39 *87:66 *1502:A 0.000269747
40 *87:66 *102:26 0
41 *87:66 *224:18 0.00107266
42 *87:66 *225:71 0.000738312
43 *70:10 *1524:B1_N 0.000368096
44 *72:10 *1397:B 0.000144732
45 *82:12 *87:66 0.000773989
46 *86:18 *87:10 0.00413016
*RES
1 *1396:Y *87:8 14.3357 
2 *87:8 *87:10 54.9196 
3 *87:10 *87:26 19.8457 
4 *87:26 *87:34 30.1607 
5 *87:34 *1524:B1_N 36.0321 
6 *87:34 *1403:A2 9.3 
7 *87:26 *87:66 48.4107 
8 *87:66 *1397:B 22.4607 
*END

*D_NET *88 0.0267968
*CONN
*I *1518:A I *D sky130_fd_sc_hd__nor2_1
*I *1517:B1 I *D sky130_fd_sc_hd__a2111o_1
*I *1398:A2_N I *D sky130_fd_sc_hd__o2bb2a_1
*I *1397:Y O *D sky130_fd_sc_hd__nor2_2
*CAP
1 *1518:A 0
2 *1517:B1 0
3 *1398:A2_N 0
4 *1397:Y 0.000688549
5 *88:46 0.00198069
6 *88:34 0.00311233
7 *88:24 0.00240738
8 *88:12 0.00177501
9 *88:8 0.00118782
10 *88:8 *1397:A 3.55371e-05
11 *88:8 *1440:A 0.00032727
12 *88:8 *1458:B 9.84475e-05
13 *88:8 *121:12 0.000902216
14 *88:8 *200:129 0.000391362
15 *88:12 *102:26 0.000183599
16 *88:24 *1483:A 0.000542924
17 *88:24 *1483:B 5.52302e-05
18 *88:24 *1518:B 5.65955e-05
19 *88:24 *109:12 0.000141729
20 *88:24 *134:14 0.000260152
21 *88:24 *139:14 9.99853e-05
22 *88:24 *147:145 0.000108068
23 *88:24 *152:18 3.63775e-05
24 *88:24 *181:24 2.70242e-05
25 *88:24 *203:31 4.87953e-05
26 *88:24 *203:37 0.000161032
27 *88:24 *203:45 0.000854973
28 *88:24 *207:122 5.7119e-05
29 *88:24 *213:33 0.000168334
30 *88:34 *1454:A 0.00091558
31 *88:34 *1517:A2 0.000845983
32 *88:34 *1517:C1 0.00080485
33 *88:34 *1517:D1 0.000538813
34 *88:34 *105:12 1.86129e-05
35 *88:34 *109:12 0.000505024
36 *88:34 *162:24 0.000119924
37 *88:34 *181:24 0.000512226
38 *88:34 *187:22 0.0005425
39 *88:34 *217:35 0.000494568
40 *88:46 *1517:A2 3.05203e-05
41 *88:46 *89:12 4.16383e-05
42 *88:46 *118:12 0.00109467
43 *88:46 *169:10 3.6337e-05
44 *88:46 *181:103 0
45 *88:46 *181:107 0
46 *1397:B *88:8 0.000649211
47 *1563:RESET_B *88:24 0.000454435
48 *11:23 *88:34 0.000103262
49 *23:16 *88:24 0
50 *42:10 *88:12 0.0016647
51 *43:10 *88:12 0.00166071
52 *84:26 *88:46 5.47223e-05
*RES
1 *1397:Y *88:8 31.5857 
2 *88:8 *88:12 25.875 
3 *88:12 *88:24 39.0357 
4 *88:24 *88:34 46.875 
5 *88:34 *88:46 47.7321 
6 *88:46 *1398:A2_N 9.3 
7 *88:34 *1517:B1 9.3 
8 *88:24 *1518:A 9.3 
*END

*D_NET *89 0.0191747
*CONN
*I *1399:B I *D sky130_fd_sc_hd__and2_1
*I *1398:X O *D sky130_fd_sc_hd__o2bb2a_1
*CAP
1 *1399:B 0.00104911
2 *1398:X 0.00153628
3 *89:16 0.00264958
4 *89:14 0.00160047
5 *89:12 0.00153628
6 *1399:B *1448:A 0.000890983
7 *1399:B *90:14 3.6337e-05
8 *1399:B *190:69 0.000126416
9 *89:12 *1392:B 0.000733076
10 *89:12 *1494:B 0.000823002
11 *89:12 *93:55 0.000431435
12 *89:12 *181:107 5.6394e-05
13 *89:16 *103:33 0
14 *89:16 *108:20 9.60337e-06
15 *89:16 *137:24 0.000784063
16 *89:16 *138:10 4.65919e-05
17 *89:16 *140:12 0.0013765
18 *89:16 *145:16 0.00318545
19 *89:16 *147:28 0.000964138
20 *89:16 *207:80 6.94775e-05
21 *89:16 *219:49 0
22 *89:16 *227:51 0.000300135
23 *27:14 *89:16 0.000855727
24 *75:12 *1399:B 7.19722e-05
25 *88:46 *89:12 4.16383e-05
*RES
1 *1398:X *89:12 47.9964 
2 *89:12 *89:14 4.5 
3 *89:14 *89:16 54.7679 
4 *89:16 *1399:B 36.8893 
*END

*D_NET *90 0.00576714
*CONN
*I *1400:A I *D sky130_fd_sc_hd__clkbuf_1
*I *1399:X O *D sky130_fd_sc_hd__and2_1
*CAP
1 *1400:A 0.000413073
2 *1399:X 0.000559918
3 *90:14 0.00097299
4 *1400:A *1482:B 0.00135187
5 *1400:A *98:28 0.000174805
6 *1400:A *98:37 0.000728341
7 *1400:A *130:22 0.000281817
8 *1400:A *130:38 0.000171296
9 *90:14 *1487:A 0
10 *90:14 *190:67 1.01912e-05
11 *90:14 *190:69 7.28057e-06
12 *1399:B *90:14 3.6337e-05
13 *75:12 *90:14 0.000976778
14 *82:12 *1400:A 8.24378e-05
*RES
1 *1399:X *90:14 34.0143 
2 *90:14 *1400:A 31.2286 
*END

*D_NET *91 0.015738
*CONN
*I *1402:B I *D sky130_fd_sc_hd__nor2_1
*I *1401:Y O *D sky130_fd_sc_hd__a21oi_1
*CAP
1 *1402:B 0.000704937
2 *1401:Y 0.00177451
3 *91:10 0.00313209
4 *91:8 0.00420166
5 *91:8 *95:32 0.000267731
6 *91:8 *165:16 5.49489e-05
7 *91:8 *214:16 0.000319786
8 *91:8 *214:37 4.73286e-05
9 *91:10 *1435:B 0.00118438
10 *91:10 *117:10 0.00378033
11 *91:10 *175:70 0.000131985
12 *68:10 *1402:B 0
13 *81:12 *91:10 0
14 *84:53 *1402:B 0.000138345
*RES
1 *1401:Y *91:8 40.2107 
2 *91:8 *91:10 62.0536 
3 *91:10 *1402:B 32.1393 
*END

*D_NET *92 0.015365
*CONN
*I *1404:B1 I *D sky130_fd_sc_hd__a21oi_1
*I *1403:Y O *D sky130_fd_sc_hd__a21oi_1
*CAP
1 *1404:B1 0.000380511
2 *1403:Y 0.00105844
3 *92:20 0.00122302
4 *92:14 0.00190094
5 *1404:B1 *1404:A2 0.000180072
6 *1404:B1 *165:16 0.00156275
7 *1404:B1 *187:61 0.00139409
8 *92:14 *129:120 0
9 *92:14 *137:24 0.000203669
10 *92:14 *180:143 6.05161e-06
11 *92:14 *187:117 0.000123333
12 *92:14 *189:32 0.000816664
13 *92:14 *191:72 0
14 *92:14 *191:84 0
15 *92:14 *194:14 0.000132939
16 *92:14 *207:122 0.00031275
17 *92:14 *226:20 0.00112096
18 *92:20 *175:18 0.0001696
19 *92:20 *179:18 0.000365155
20 *92:20 *179:28 3.75311e-05
21 *92:20 *180:29 0.00165901
22 *92:20 *180:123 0.000413249
23 *92:20 *190:31 0.000138599
24 *92:20 *190:67 0.00012712
25 *92:20 *219:49 0.00011062
26 *92:20 *220:10 0.00108221
27 *76:28 *92:20 0.000123767
28 *85:10 *92:14 0.000126424
29 *87:34 *92:14 0.000595493
*RES
1 *1403:Y *92:14 46.8 
2 *92:14 *92:20 38.875 
3 *92:20 *1404:B1 24.6214 
*END

*D_NET *93 0.0252102
*CONN
*I *1513:A1 I *D sky130_fd_sc_hd__a21o_1
*I *1417:A1 I *D sky130_fd_sc_hd__a21bo_2
*I *1405:Y O *D sky130_fd_sc_hd__inv_2
*CAP
1 *1513:A1 0
2 *1417:A1 0.000217151
3 *1405:Y 0.00439428
4 *93:55 0.0014027
5 *93:51 0.00403926
6 *93:18 0.00724798
7 *1417:A1 *1517:C1 2.28007e-05
8 *1417:A1 *1569:CLK 1.99406e-05
9 *1417:A1 *167:24 2.61971e-05
10 *93:18 *97:44 0.000164017
11 *93:18 *128:20 0
12 *93:18 *151:14 8.00806e-05
13 *93:18 *185:20 0.000208487
14 *93:51 *1407:D 0.000573345
15 *93:51 *1429:B1 7.54369e-06
16 *93:51 *1515:A 0.000152804
17 *93:51 *137:24 0.000121008
18 *93:51 *167:24 0.000100914
19 *93:51 *175:18 0.000571898
20 *93:51 *188:158 9.87385e-05
21 *93:51 *190:31 0.00023123
22 *93:51 *214:37 0.000103363
23 *93:51 *220:10 4.40598e-05
24 *93:55 *1392:B 0.00136211
25 *93:55 *1392:C 0.000263907
26 *93:55 *1513:B1 0.000772905
27 *93:55 *1567:CLK 0.000694754
28 *93:55 *104:45 0.000333455
29 *93:55 *170:47 0.000611097
30 *93:55 *224:8 0.000290967
31 *47:12 *93:51 0.000346471
32 *47:174 *93:51 0.000171954
33 *83:12 *93:51 0.000103363
34 *89:12 *93:55 0.000431435
*RES
1 *1405:Y *93:18 36.416 
2 *93:18 *1417:A1 18.0896 
3 *93:18 *93:51 31.776 
4 *93:51 *93:55 42.4464 
5 *93:55 *1513:A1 9.3 
*END

*D_NET *94 0.0123565
*CONN
*I *1416:A1 I *D sky130_fd_sc_hd__o211ai_2
*I *1406:X O *D sky130_fd_sc_hd__a21o_1
*CAP
1 *1416:A1 0
2 *1406:X 0.000931801
3 *94:30 0.00205789
4 *94:12 0.00298969
5 *94:12 *1406:A1 0.000183711
6 *94:12 *1406:A2 0.000443387
7 *94:12 *1429:A1 0.000182811
8 *94:12 *1430:C 1.46231e-05
9 *94:12 *137:24 0.000123361
10 *94:12 *211:108 2.05533e-05
11 *94:12 *219:23 0.000650319
12 *94:30 *1412:D 0.000109588
13 *94:30 *1462:B 4.21517e-05
14 *94:30 *95:32 4.85033e-05
15 *94:30 *122:12 0.0006146
16 *94:30 *127:24 1.10422e-05
17 *94:30 *135:14 0.000680909
18 *94:30 *155:34 0.000145936
19 *94:30 *163:12 0
20 *94:30 *165:16 1.84301e-05
21 *94:30 *166:26 6.79576e-05
22 *94:30 *201:38 0.000177815
23 *94:30 *205:30 6.81704e-05
24 *94:30 *222:36 0.00218793
25 *1566:RESET_B *94:30 4.26897e-05
26 *80:16 *94:30 0.000542593
*RES
1 *1406:X *94:12 34.0857 
2 *94:12 *94:30 46.0503 
3 *94:30 *1416:A1 9.3 
*END

*D_NET *95 0.0401684
*CONN
*I *1437:A2 I *D sky130_fd_sc_hd__a21oi_1
*I *1430:A_N I *D sky130_fd_sc_hd__and3b_1
*I *1409:A I *D sky130_fd_sc_hd__and2_2
*I *1433:B I *D sky130_fd_sc_hd__nand2_1
*I *1434:B I *D sky130_fd_sc_hd__or2_1
*I *1438:C I *D sky130_fd_sc_hd__and3_1
*I *1451:C I *D sky130_fd_sc_hd__and4_4
*I *1407:X O *D sky130_fd_sc_hd__and4_2
*CAP
1 *1437:A2 0.00030151
2 *1430:A_N 7.35127e-05
3 *1409:A 0
4 *1433:B 0.000775663
5 *1434:B 0
6 *1438:C 0
7 *1451:C 0.000238953
8 *1407:X 0.000157256
9 *95:123 0.00147547
10 *95:82 0.000809074
11 *95:78 0.00130775
12 *95:70 0.00149607
13 *95:55 0.00168672
14 *95:32 0.00396523
15 *95:16 0.00293227
16 *95:6 0.00192869
17 *1430:A_N *1486:A3 0.000402594
18 *1430:A_N *209:31 0.00026091
19 *1433:B *1414:A1 0.000554596
20 *1433:B *1445:C1 3.15739e-05
21 *1433:B *1538:A 1.24368e-05
22 *1433:B *1544:A 0.00021559
23 *1433:B *110:16 0.000561098
24 *1433:B *128:20 7.80519e-05
25 *1433:B *146:10 0
26 *1433:B *180:143 1.04232e-05
27 *1433:B *188:76 0
28 *1433:B *221:84 2.6269e-05
29 *1437:A2 *1486:A1 2.14757e-05
30 *1437:A2 *1486:A3 0.000111386
31 *1437:A2 *1486:A4 0.000151414
32 *1437:A2 *1486:B1 0.000139907
33 *1437:A2 *154:12 0.000477526
34 *1437:A2 *209:31 0.000483013
35 *1437:A2 *209:56 0.000341821
36 *1451:C *1452:C 1.36181e-05
37 *1451:C *129:8 9.71197e-05
38 *1451:C *129:35 0.000156737
39 *1451:C *206:40 7.40536e-05
40 *95:16 *193:14 1.6806e-05
41 *95:16 *213:81 0.000443965
42 *95:32 *1449:A 2.36643e-05
43 *95:32 *1462:B 9.89573e-05
44 *95:32 *127:24 3.006e-05
45 *95:32 *129:35 2.59355e-05
46 *95:32 *165:16 0.00231274
47 *95:32 *201:38 2.22618e-05
48 *95:32 *205:30 0.000135028
49 *95:55 *1438:A 0.000199952
50 *95:55 *104:22 0.000141555
51 *95:55 *104:45 0.00033384
52 *95:55 *115:14 0.00108593
53 *95:55 *115:20 0.000153565
54 *95:55 *120:8 0.000301438
55 *95:55 *129:35 6.09764e-05
56 *95:55 *164:12 0.000961847
57 *95:70 *1415:D 0.000224315
58 *95:70 *96:33 0.000222244
59 *95:70 *187:48 0.000125724
60 *95:70 *213:81 0.000126951
61 *95:78 *1427:A 0.000108872
62 *95:78 *97:44 4.20505e-05
63 *95:78 *105:44 9.37825e-05
64 *95:78 *105:52 0.000450355
65 *95:78 *110:16 0.000970388
66 *95:78 *127:24 0.000153613
67 *95:78 *185:35 0.000354294
68 *95:78 *185:41 0.000171271
69 *95:78 *188:45 0.000321539
70 *95:78 *188:76 0.00160051
71 *95:82 *221:84 5.33005e-05
72 *95:123 *1407:D 0
73 *95:123 *1430:C 0.000445148
74 *95:123 *1486:A2 0
75 *95:123 *188:158 0.000578234
76 *95:123 *213:81 0.000875139
77 *1580:RESET_B *1433:B 0.000392107
78 *1581:RESET_B *1433:B 0.000492884
79 *22:18 *95:16 0.000467002
80 *33:22 *95:78 0.000342127
81 *40:12 *1451:C 3.20609e-05
82 *45:18 *1451:C 5.31803e-05
83 *45:28 *95:55 0.000520838
84 *46:24 *95:16 0.00011654
85 *46:24 *95:70 0.000127416
86 *47:12 *95:123 0
87 *47:174 *95:6 0.000224657
88 *47:174 *95:16 0.000224341
89 *48:12 *95:78 0.000939467
90 *54:18 *95:55 0.000287454
91 *59:8 *1433:B 9.54798e-06
92 *59:8 *95:78 0.000679017
93 *80:16 *95:32 0.000307542
94 *91:8 *95:32 0.000267731
95 *94:30 *95:32 4.85033e-05
*RES
1 *1407:X *95:6 11.4786 
2 *95:6 *95:16 19.1071 
3 *95:16 *95:32 47.2679 
4 *95:32 *1451:C 22.6214 
5 *95:32 *95:55 48.6964 
6 *95:55 *1438:C 9.3 
7 *95:16 *95:70 11.4107 
8 *95:70 *95:78 49.1071 
9 *95:78 *95:82 5.03571 
10 *95:82 *1434:B 9.3 
11 *95:82 *1433:B 39.05 
12 *95:70 *1409:A 9.3 
13 *95:6 *95:123 33.4643 
14 *95:123 *1430:A_N 13.1214 
15 *95:123 *1437:A2 23.0143 
*END

*D_NET *96 0.0188787
*CONN
*I *1451:D I *D sky130_fd_sc_hd__and4_4
*I *1409:B I *D sky130_fd_sc_hd__and2_2
*I *1408:X O *D sky130_fd_sc_hd__and4_1
*CAP
1 *1451:D 0
2 *1409:B 2.07973e-05
3 *1408:X 0.000142199
4 *96:33 0.00157975
5 *96:14 0.00171969
6 *96:10 0.0017495
7 *96:8 0.00177255
8 *1409:B *1415:D 1.00733e-05
9 *96:8 *1408:A 5.33005e-05
10 *96:8 *1408:B 6.71327e-05
11 *96:8 *1408:D 0.000139254
12 *96:10 *1479:C 0.000567563
13 *96:10 *107:24 0.000307664
14 *96:10 *109:12 0.000685053
15 *96:10 *149:25 0.000222947
16 *96:10 *160:10 0.000331527
17 *96:10 *168:33 0.00230768
18 *96:10 *185:20 0
19 *96:10 *212:63 0.000967513
20 *96:10 *217:35 0
21 *96:14 *1415:D 0.000451319
22 *96:14 *103:8 0.000473331
23 *96:33 *1415:D 9.84845e-05
24 *96:33 *1416:B1 0.000401928
25 *96:33 *1451:A 0.000353364
26 *96:33 *1452:C 9.54798e-06
27 *96:33 *103:8 0.00152317
28 *96:33 *129:35 2.02509e-05
29 *96:33 *142:28 0.000308592
30 *96:33 *163:56 0.00097644
31 *96:33 *201:30 0.00068412
32 *66:10 *96:33 3.54522e-05
33 *70:10 *96:10 0.000350495
34 *74:22 *96:10 0.000325748
35 *95:70 *96:33 0.000222244
*RES
1 *1408:X *96:8 16.8 
2 *96:8 *96:10 53.25 
3 *96:10 *96:14 9.14286 
4 *96:14 *1409:B 9.72857 
5 *96:14 *96:33 48.6429 
6 *96:33 *1451:D 9.3 
*END

*D_NET *97 0.0279373
*CONN
*I *1414:A2 I *D sky130_fd_sc_hd__o31a_1
*I *1445:C1 I *D sky130_fd_sc_hd__a211oi_1
*I *1450:A2 I *D sky130_fd_sc_hd__a21oi_2
*I *1446:B I *D sky130_fd_sc_hd__or2_1
*I *1447:B I *D sky130_fd_sc_hd__nand2_1
*I *1409:X O *D sky130_fd_sc_hd__and2_2
*CAP
1 *1414:A2 0.000798583
2 *1445:C1 0.000799969
3 *1450:A2 0
4 *1446:B 6.30723e-05
5 *1447:B 0.000437369
6 *1409:X 0.0001541
7 *97:53 0.00162885
8 *97:44 0.00131153
9 *97:22 0.00196101
10 *97:8 0.0028959
11 *1414:A2 *1414:A1 0.000619418
12 *1414:A2 *1414:B1 0.000789524
13 *1414:A2 *102:8 0.000660606
14 *1414:A2 *162:24 0.000175445
15 *1414:A2 *185:16 0
16 *1414:A2 *185:20 0
17 *1445:C1 *106:55 5.33005e-05
18 *1445:C1 *115:106 0.000306498
19 *1445:C1 *124:14 0.000139491
20 *1445:C1 *128:20 0.000306163
21 *1445:C1 *146:10 0.000398458
22 *1445:C1 *151:14 0.000817736
23 *1445:C1 *151:22 1.24368e-05
24 *1445:C1 *175:70 1.02936e-05
25 *1445:C1 *188:105 0.000445438
26 *1445:C1 *221:84 0.000734749
27 *1445:C1 *221:98 5.33005e-05
28 *1445:C1 *225:75 0.000221815
29 *1446:B *104:22 5.65067e-05
30 *1446:B *125:12 0.000219289
31 *1446:B *225:30 9.66977e-05
32 *1447:B *1438:A 4.58194e-05
33 *1447:B *204:38 0.00108672
34 *1447:B *209:70 0.000672714
35 *1447:B *223:35 0.000152711
36 *97:8 *1503:A 0.000481441
37 *97:8 *147:16 8.15626e-05
38 *97:8 *147:22 0.000148182
39 *97:8 *188:32 0.000177753
40 *97:22 *1517:C1 0.000512478
41 *97:22 *1571:CLK 5.20669e-05
42 *97:22 *104:22 0.000677046
43 *97:22 *125:12 8.40933e-05
44 *97:22 *202:14 0.000178874
45 *97:22 *213:61 3.42999e-05
46 *97:22 *227:51 4.02038e-05
47 *97:44 *1403:A1 6.35798e-05
48 *97:44 *1448:B 0.000873332
49 *97:44 *1454:A 2.14001e-05
50 *97:44 *1503:A 0.000210637
51 *97:44 *105:12 0.000768784
52 *97:44 *110:16 5.90443e-06
53 *97:44 *127:24 0.00015525
54 *97:44 *151:14 7.83659e-05
55 *97:44 *162:24 0.000442764
56 *97:44 *185:20 0
57 *97:44 *187:22 0.000162382
58 *97:44 *188:32 7.90803e-05
59 *97:44 *188:45 0.000881494
60 *97:44 *188:76 0.00159428
61 *97:44 *221:98 0.000384295
62 *97:53 *1414:A1 1.08359e-05
63 *97:53 *185:20 0
64 *97:53 *221:98 3.34295e-05
65 *1433:B *1445:C1 3.15739e-05
66 *1571:RESET_B *97:22 0.000136443
67 *1581:D *1414:A2 0.000603599
68 *31:12 *1447:B 0.000398458
69 *33:22 *1445:C1 0.000107625
70 *65:24 *1447:B 9.41642e-05
71 *93:18 *97:44 0.000164017
72 *95:78 *97:44 4.20505e-05
*RES
1 *1409:X *97:8 19.9964 
2 *97:8 *97:22 30.8036 
3 *97:22 *1447:B 33.6393 
4 *97:22 *1446:B 11.4786 
5 *97:8 *97:44 41.7143 
6 *97:44 *1450:A2 13.8 
7 *97:44 *97:53 0.732143 
8 *97:53 *1445:C1 48.4607 
9 *97:53 *1414:A2 37.5321 
*END

*D_NET *98 0.0206485
*CONN
*I *1474:C I *D sky130_fd_sc_hd__and4_1
*I *1411:D I *D sky130_fd_sc_hd__or4_2
*I *1410:X O *D sky130_fd_sc_hd__and4_1
*CAP
1 *1474:C 0.000599457
2 *1411:D 0
3 *1410:X 0
4 *98:37 0.00175736
5 *98:28 0.001596
6 *98:6 0.00275391
7 *1474:C *186:27 0.000432467
8 *1474:C *201:76 0.00322811
9 *98:28 *1411:A 9.58181e-05
10 *98:28 *1606:A 5.50839e-05
11 *98:28 *108:20 0.00135294
12 *98:28 *129:64 0.000153354
13 *98:28 *181:51 9.74665e-05
14 *98:28 *200:88 0.000287926
15 *98:28 *210:14 2.8266e-06
16 *98:28 *211:85 4.64488e-06
17 *98:37 *1482:B 2.04626e-05
18 *98:37 *130:38 0.000565013
19 *98:37 *147:166 0.000533619
20 *98:37 *151:22 0.000940084
21 *98:37 *206:14 0
22 *1400:A *98:28 0.000174805
23 *1400:A *98:37 0.000728341
24 *1505:C1 *1474:C 0.00117813
25 *1508:A *1474:C 0.00122914
26 *1519:B1 *1474:C 0.000226159
27 *1564:RESET_B *98:28 0
28 *1580:D *98:37 0
29 *43:10 *98:37 6.56977e-05
30 *82:12 *98:28 0.00017309
31 *82:12 *98:37 0.00239663
*RES
1 *1410:X *98:6 13.8 
2 *98:6 *98:28 48.5714 
3 *98:28 *1411:D 9.3 
4 *98:6 *98:37 43.4821 
5 *98:37 *1474:C 40.6393 
*END

*D_NET *99 0.0208145
*CONN
*I *1414:A3 I *D sky130_fd_sc_hd__o31a_1
*I *1411:X O *D sky130_fd_sc_hd__or4_2
*CAP
1 *1414:A3 0
2 *1411:X 4.66968e-05
3 *99:24 0.00244574
4 *99:20 0.00319254
5 *99:10 0.00207543
6 *99:8 0.00137533
7 *99:10 *1523:A 0.000734378
8 *99:10 *108:12 0.00066393
9 *99:10 *129:66 0
10 *99:10 *161:24 2.27058e-05
11 *99:10 *197:10 7.29535e-05
12 *99:10 *221:45 0.000401515
13 *99:20 *1457:B1 8.33813e-05
14 *99:20 *1540:A 5.33005e-05
15 *99:20 *147:166 0.000950379
16 *99:20 *195:16 0.000310021
17 *99:20 *202:74 0.00162475
18 *99:24 *1414:A1 0.000834363
19 *99:24 *1414:B1 0.000435702
20 *99:24 *102:8 0.000472264
21 *99:24 *180:71 0.000354105
22 seg[4] *99:10 0.000117805
23 *1575:D *99:10 0.00139925
24 *1580:D *99:20 4.23557e-05
25 *35:16 *99:10 8.29822e-05
26 *42:10 *99:20 0.000588005
27 *43:10 *99:20 0.000586482
28 *57:12 *99:10 0.00184817
*RES
1 *1411:X *99:8 14.3357 
2 *99:8 *99:10 45.6607 
3 *99:10 *99:20 40.2321 
4 *99:20 *99:24 44.0893 
5 *99:24 *1414:A3 9.3 
*END

*D_NET *100 0.0110815
*CONN
*I *1413:C I *D sky130_fd_sc_hd__and4b_1
*I *1412:X O *D sky130_fd_sc_hd__and4b_1
*CAP
1 *1413:C 0.000878494
2 *1412:X 0.000785381
3 *100:10 0.00166388
4 *1413:C *1403:A1 0.000187572
5 *1413:C *1413:A_N 5.52238e-05
6 *1413:C *1413:D 0.000593395
7 *1413:C *103:33 0.000338955
8 *1413:C *128:20 0.000140331
9 *1413:C *168:14 0.000169705
10 *1413:C *179:75 0.00024175
11 *1413:C *189:32 0.00105345
12 *1413:C *194:14 0.000535211
13 *1413:C *227:26 8.55871e-05
14 *100:10 *1522:C 0.000101545
15 *100:10 *204:21 0.000354637
16 *100:10 *204:38 0.00150082
17 *100:10 *207:80 0.000145753
18 *100:10 *209:60 0.000113443
19 *100:10 *210:22 6.62618e-05
20 *100:10 *223:35 0.000112404
21 *100:10 *225:30 0.000881377
22 *1563:RESET_B *100:10 7.46663e-05
23 *27:14 *1413:C 0.000694402
24 *31:12 *100:10 1.87004e-05
25 *85:31 *100:10 0.000288564
*RES
1 *1412:X *100:10 44.8357 
2 *100:10 *1413:C 46.5321 
*END

*D_NET *101 0.00801461
*CONN
*I *1414:B1 I *D sky130_fd_sc_hd__o31a_1
*I *1413:X O *D sky130_fd_sc_hd__and4b_1
*CAP
1 *1414:B1 0.000344404
2 *1413:X 0.0013708
3 *101:12 0.0017152
4 *1414:B1 *1414:A1 0.000834363
5 *1414:B1 *102:8 0.000418933
6 *101:12 *1403:A1 2.62426e-05
7 *101:12 *129:120 0.00202804
8 *101:12 *175:81 0
9 *101:12 *191:70 0
10 *101:12 *213:22 5.14074e-05
11 *101:12 *213:33 0
12 *101:12 *221:74 0
13 *1414:A2 *1414:B1 0.000789524
14 *1584:D *101:12 0
15 *99:24 *1414:B1 0.000435702
*RES
1 *1413:X *101:12 47.6036 
2 *101:12 *1414:B1 25.4607 
*END

*D_NET *102 0.0212891
*CONN
*I *1416:A2 I *D sky130_fd_sc_hd__o211ai_2
*I *1414:X O *D sky130_fd_sc_hd__o31a_1
*CAP
1 *1416:A2 0
2 *1414:X 0.00223052
3 *102:26 0.00338403
4 *102:8 0.00561455
5 *102:26 *1395:B 0.000255283
6 *102:26 *1451:A 0.000223177
7 *102:26 *1480:A 0.000684147
8 *102:26 *1522:C 3.06589e-05
9 *102:26 *104:22 5.26533e-05
10 *102:26 *123:12 0
11 *102:26 *130:38 0.000754099
12 *102:26 *136:24 0.00185643
13 *102:26 *163:56 0.00018798
14 *102:26 *185:8 0
15 *102:26 *223:35 0.00019223
16 *102:26 *225:71 0.0001897
17 *1414:A2 *102:8 0.000660606
18 *1414:B1 *102:8 0.000418933
19 *1519:B1 *102:26 9.89991e-05
20 *1566:D *102:26 0.00207894
21 *1577:RESET_B *102:26 0.000183617
22 *42:10 *102:26 0.000293495
23 *44:26 *102:26 2.35126e-05
24 *54:18 *102:26 0.0012197
25 *87:66 *102:26 0
26 *88:12 *102:26 0.000183599
27 *99:24 *102:8 0.000472264
*RES
1 *1414:X *102:8 43.9071 
2 *102:8 *102:26 48.0955 
3 *102:26 *1416:A2 13.8 
*END

*D_NET *103 0.0224259
*CONN
*I *1504:A I *D sky130_fd_sc_hd__and2_2
*I *1416:B1 I *D sky130_fd_sc_hd__o211ai_2
*I *1415:X O *D sky130_fd_sc_hd__and4_1
*CAP
1 *1504:A 0.00116685
2 *1416:B1 0.00184831
3 *1415:X 0.00121235
4 *103:33 0.00252395
5 *103:8 0.00441776
6 *1416:B1 *104:22 0.000123288
7 *1416:B1 *145:16 5.66455e-05
8 *1416:B1 *201:30 0.0007027
9 *1416:B1 *227:53 5.43491e-05
10 *1504:A *1442:C 0
11 *1504:A *1466:A 0.000276641
12 *1504:A *1596:A 1.03926e-05
13 *1504:A *115:91 0.000104974
14 *1504:A *115:100 9.30093e-05
15 *1504:A *122:32 0
16 *1504:A *124:14 0.000309701
17 *1504:A *133:22 0.00011089
18 *1504:A *155:57 0
19 *1504:A *179:75 5.32447e-05
20 *1504:A *179:108 0.000748507
21 *1504:A *185:16 5.33005e-05
22 *1504:A *199:28 5.33005e-05
23 *1504:A *212:16 0
24 *1504:A *212:30 7.72966e-05
25 *1504:A *213:22 8.6229e-06
26 *103:8 *1415:D 6.50255e-05
27 *103:33 *1599:A 0.00020882
28 *103:33 *108:20 7.69776e-06
29 *103:33 *128:20 0.000169715
30 *103:33 *133:22 0.000263954
31 *103:33 *134:40 0.00107859
32 *103:33 *145:16 0.000703773
33 *103:33 *179:75 0.000296081
34 *103:33 *185:45 0.00122816
35 *103:33 *227:53 7.85957e-05
36 *1413:C *103:33 0.000338955
37 *1565:RESET_B *1504:A 1.05521e-05
38 *27:14 *103:33 9.55094e-05
39 *40:12 *1416:B1 0.000123288
40 *47:39 *1416:B1 6.05161e-06
41 *47:105 *1504:A 7.0769e-05
42 *54:18 *1504:A 0.00127582
43 *86:16 *103:33 0
44 *89:16 *103:33 0
45 *96:14 *103:8 0.000473331
46 *96:33 *1416:B1 0.000401928
47 *96:33 *103:8 0.00152317
*RES
1 *1415:X *103:8 35.2821 
2 *103:8 *1416:B1 46.8536 
3 *103:8 *103:33 38.6161 
4 *103:33 *1504:A 44.9696 
*END

*D_NET *104 0.016417
*CONN
*I *1513:A2 I *D sky130_fd_sc_hd__a21o_1
*I *1417:A2 I *D sky130_fd_sc_hd__a21bo_2
*I *1416:Y O *D sky130_fd_sc_hd__o211ai_2
*CAP
1 *1513:A2 0
2 *1417:A2 0.000412867
3 *1416:Y 0
4 *104:45 0.00148224
5 *104:22 0.00132003
6 *104:4 0.00238941
7 *1417:A2 *1417:B1_N 0.00123241
8 *1417:A2 *214:37 0.000763481
9 *104:22 *1451:A 0.000261524
10 *104:22 *1451:B 0.000171913
11 *104:22 *122:12 0.00019232
12 *104:22 *129:35 0.00014572
13 *104:22 *202:14 0.00181661
14 *104:22 *208:14 0.000559259
15 *104:22 *225:30 0.000184246
16 *104:45 *1567:CLK 0.000122091
17 *104:45 *115:20 0.00016114
18 *104:45 *115:30 0.000760957
19 *104:45 *129:35 0.000347174
20 *104:45 *154:16 0.00140361
21 *104:45 *166:26 0.000101771
22 *1416:B1 *104:22 0.000123288
23 *1446:B *104:22 5.65067e-05
24 *1566:D *104:22 0.000108076
25 *24:14 *104:22 0.000194034
26 *40:12 *104:22 4.40898e-05
27 *47:39 *104:22 0.000523694
28 *93:55 *104:45 0.000333455
29 *95:55 *104:22 0.000141555
30 *95:55 *104:45 0.00033384
31 *97:22 *104:22 0.000677046
32 *102:26 *104:22 5.26533e-05
*RES
1 *1416:Y *104:4 9.3 
2 *104:4 *104:22 46 
3 *104:22 *1417:A2 25.8357 
4 *104:4 *104:45 42.8214 
5 *104:45 *1513:A2 9.3 
*END

*D_NET *105 0.0380921
*CONN
*I *1432:A I *D sky130_fd_sc_hd__clkbuf_4
*I *1501:A I *D sky130_fd_sc_hd__and3_1
*I *1418:A I *D sky130_fd_sc_hd__inv_2
*I *1511:A I *D sky130_fd_sc_hd__and3_1
*I *1430:B I *D sky130_fd_sc_hd__and3b_1
*I *1427:B I *D sky130_fd_sc_hd__and3_1
*I *1494:A I *D sky130_fd_sc_hd__and3_1
*I *1448:B I *D sky130_fd_sc_hd__and3_1
*I *1423:B I *D sky130_fd_sc_hd__and3_1
*I *1417:X O *D sky130_fd_sc_hd__a21bo_2
*CAP
1 *1432:A 0.00110074
2 *1501:A 0.000686767
3 *1418:A 0
4 *1511:A 0
5 *1430:B 0.000501679
6 *1427:B 4.17924e-05
7 *1494:A 0.000343269
8 *1448:B 0.000740774
9 *1423:B 0.000414679
10 *1417:X 6.23975e-05
11 *105:121 0.00193625
12 *105:112 0.00204347
13 *105:77 0.00121092
14 *105:56 0.00101789
15 *105:52 0.00134107
16 *105:44 0.00335085
17 *105:12 0.0016291
18 *105:6 0.000658256
19 *1423:B *228:DIODE 5.7993e-06
20 *1423:B *108:30 7.43365e-05
21 *1423:B *131:12 3.47578e-05
22 *1423:B *187:22 5.33005e-05
23 *1427:B *180:8 2.85234e-05
24 *1430:B *1406:A1 0
25 *1430:B *1486:A3 3.01817e-05
26 *1430:B *1578:CLK 4.06715e-05
27 *1430:B *209:31 0.000257922
28 *1432:A *1530:A 5.33005e-05
29 *1432:A *1563:CLK 0.000353684
30 *1432:A *115:8 0.00114189
31 *1432:A *165:35 4.49293e-05
32 *1432:A *165:37 0.000193983
33 *1432:A *184:112 6.8646e-06
34 *1432:A *186:72 0.000220455
35 *1432:A *186:74 0.000783934
36 *1432:A *189:28 0.000229145
37 *1432:A *191:30 0.00023988
38 *1448:B *1448:A 0.000145239
39 *1448:B *162:24 0.000195979
40 *1448:B *168:14 0.000302793
41 *1448:B *180:143 0.000257222
42 *1448:B *187:22 0.000865748
43 *1448:B *191:84 0.000147714
44 *1494:A *201:14 3.24989e-05
45 *1501:A *1501:C 0.000671476
46 *1501:A *1509:A 0.000331429
47 *1501:A *1509:B 1.09569e-05
48 *1501:A *165:35 0.000733359
49 *1501:A *184:84 2.59355e-05
50 *1501:A *201:46 0
51 *105:6 *167:24 3.97677e-05
52 *105:12 *1454:A 0.000703193
53 *105:12 *1503:A 0.000129332
54 *105:12 *167:24 6.05161e-06
55 *105:12 *187:22 3.06511e-05
56 *105:52 *1427:A 0.000426482
57 *105:52 *1511:C 0.000103714
58 *105:52 *147:10 2.11419e-05
59 *105:52 *193:14 0
60 *105:52 *201:14 0
61 *105:56 *201:14 2.06112e-05
62 *105:77 *1427:A 0.000834967
63 *105:77 *180:8 4.97967e-05
64 *105:77 *201:14 1.19021e-05
65 *105:112 *106:8 0.00105599
66 *105:112 *143:41 0.000116824
67 *105:112 *207:80 0.000642793
68 *105:112 *213:61 0.000156591
69 *105:121 *184:108 0.000135028
70 *1498:C1 *105:52 4.5953e-05
71 *1577:D *1432:A 0.000333229
72 *1578:RESET_B *1430:B 3.8524e-05
73 *1583:D *1501:A 4.26863e-05
74 *20:14 *1501:A 0
75 *30:10 *1432:A 0.00101832
76 *41:12 *105:52 0.000100831
77 *41:14 *105:112 0.00159913
78 *41:14 *105:121 0.000327935
79 *46:24 *105:44 0.000357491
80 *46:24 *105:52 0.000891587
81 *48:12 *105:52 0.000498961
82 *50:18 *1432:A 0.00018943
83 *50:18 *1501:A 1.03904e-05
84 *59:8 *1448:B 0.000257222
85 *59:8 *105:44 0.000171355
86 *84:18 *1494:A 0.000639481
87 *84:18 *105:52 0.000268577
88 *84:26 *1494:A 1.74352e-05
89 *88:34 *105:12 1.86129e-05
90 *95:78 *105:44 9.37825e-05
91 *95:78 *105:52 0.000450355
92 *97:44 *1448:B 0.000873332
93 *97:44 *105:12 0.000768784
*RES
1 *1417:X *105:6 10.2464 
2 *105:6 *105:12 17.6429 
3 *105:12 *1423:B 18.4429 
4 *105:12 *1448:B 43.6214 
5 *105:6 *105:44 9.17857 
6 *105:44 *105:52 38.1071 
7 *105:52 *105:56 4.77679 
8 *105:56 *1494:A 21.3982 
9 *105:56 *105:77 18.7054 
10 *105:77 *1427:B 9.83571 
11 *105:77 *1430:B 25.6214 
12 *105:52 *1511:A 9.3 
13 *105:44 *105:112 44.5179 
14 *105:112 *1418:A 9.3 
15 *105:112 *105:121 7.91071 
16 *105:121 *1501:A 32.0857 
17 *105:121 *1432:A 48.2643 
*END

*D_NET *106 0.0219654
*CONN
*I *1445:B1 I *D sky130_fd_sc_hd__a211oi_1
*I *1419:A I *D sky130_fd_sc_hd__buf_4
*I *1418:Y O *D sky130_fd_sc_hd__inv_2
*CAP
1 *1445:B1 0
2 *1419:A 0
3 *1418:Y 0.0014658
4 *106:55 0.00207858
5 *106:14 0.00131135
6 *106:8 0.00485573
7 *106:8 *143:41 0.000224341
8 *106:14 *1464:A1 0.000193125
9 *106:14 *1511:B 0.00120342
10 *106:14 *1594:A 4.29498e-05
11 *106:14 *119:10 0.0001592
12 *106:14 *135:14 0.000205417
13 *106:14 *163:56 0.000534538
14 *106:14 *210:36 0.00127896
15 *106:14 *224:12 0.000444843
16 *106:55 *1413:D 0.000135028
17 *106:55 *1424:A 8.29974e-06
18 *106:55 *1464:A1 0.000425517
19 *106:55 *119:10 6.18857e-05
20 *106:55 *122:32 0.000113195
21 *106:55 *125:12 0.000348571
22 *106:55 *142:22 3.88378e-06
23 *106:55 *151:22 1.98839e-05
24 *106:55 *155:57 0.000562349
25 *106:55 *182:18 0.000403447
26 *106:55 *182:48 0.00160483
27 *106:55 *209:70 0.000225188
28 *106:55 *221:74 6.21057e-05
29 *106:55 *223:35 0.000670375
30 *106:55 *227:26 0.000166237
31 *1445:C1 *106:55 5.33005e-05
32 *31:12 *106:55 0.000137292
33 *44:26 *106:55 1.24368e-05
34 *47:56 *106:55 2.16715e-05
35 *84:18 *106:14 0.00120534
36 *86:16 *106:55 0.000575038
37 *87:10 *106:14 0
38 *87:26 *106:55 9.53076e-05
39 *105:112 *106:8 0.00105599
*RES
1 *1418:Y *106:8 32.4071 
2 *106:8 *106:14 46.3036 
3 *106:14 *1419:A 9.3 
4 *106:8 *106:55 48.6481 
5 *106:55 *1445:B1 9.3 
*END

*D_NET *107 0.0189501
*CONN
*I *1423:A I *D sky130_fd_sc_hd__and3_1
*I *1421:Y O *D sky130_fd_sc_hd__nand2_1
*CAP
1 *1423:A 0
2 *1421:Y 0.00601378
3 *107:24 0.00601378
4 *107:24 *1479:C 0.000139482
5 *107:24 *133:22 0.00083454
6 *107:24 *142:22 0.000743171
7 *107:24 *162:24 0
8 *107:24 *179:108 0.000457259
9 *107:24 *181:18 0.000197797
10 *107:24 *191:8 3.91575e-05
11 *107:24 *207:14 1.86743e-05
12 *107:24 *212:63 0.000117442
13 *107:24 *216:22 0.000329827
14 *107:24 *216:41 2.21972e-05
15 *1584:D *107:24 0.000233389
16 *1584:RESET_B *107:24 0.00013423
17 *11:23 *107:24 0.000109181
18 *34:18 *107:24 0.000789463
19 *58:20 *107:24 0.0015794
20 *70:10 *107:24 0.000392493
21 *72:10 *107:24 0
22 *74:22 *107:24 0.000477161
23 *96:10 *107:24 0.000307664
*RES
1 *1421:Y *107:24 47.0898 
2 *107:24 *1423:A 13.8 
*END

*D_NET *108 0.015968
*CONN
*I *1423:C I *D sky130_fd_sc_hd__and3_1
*I *228:DIODE I *D sky130_fd_sc_hd__diode_2
*I *1422:X O *D sky130_fd_sc_hd__or2_1
*CAP
1 *1423:C 1.99004e-05
2 *228:DIODE 0.000108116
3 *1422:X 0.000391782
4 *108:30 0.00182862
5 *108:20 0.00320752
6 *108:12 0.0018987
7 *228:DIODE *131:12 0.000121001
8 *1423:C *131:12 1.23781e-05
9 *108:12 *221:45 9.97164e-05
10 *108:20 *129:64 9.58181e-05
11 *108:30 *1516:C 0.000600238
12 *108:30 *131:12 0.000228783
13 *108:30 *160:10 4.58835e-05
14 *108:30 *207:14 0.000195036
15 *108:30 *217:35 4.38265e-05
16 *1423:B *228:DIODE 5.7993e-06
17 *1423:B *108:30 7.43365e-05
18 *1476:C1 *108:20 0.000265031
19 *11:23 *108:30 0.000223355
20 *26:8 *108:20 0.00400278
21 *34:30 *108:30 6.20441e-06
22 *47:64 *108:20 0.000458965
23 *89:16 *108:20 9.60337e-06
24 *98:28 *108:20 0.00135294
25 *99:10 *108:12 0.00066393
26 *103:33 *108:20 7.69776e-06
*RES
1 *1422:X *108:12 27.4607 
2 *108:12 *108:20 47.3296 
3 *108:20 *108:30 14.1541 
4 *108:30 *228:DIODE 11.55 
5 *108:30 *1423:C 9.72857 
*END

*D_NET *109 0.00847807
*CONN
*I *1424:A I *D sky130_fd_sc_hd__clkbuf_1
*I *1423:X O *D sky130_fd_sc_hd__and3_1
*CAP
1 *1424:A 0.000516786
2 *1423:X 0.00212187
3 *109:12 0.00263866
4 *1424:A *1413:D 2.18895e-05
5 *1424:A *1599:A 0
6 *1424:A *122:12 9.19324e-05
7 *1424:A *122:32 0.000480689
8 *1424:A *227:26 9.87983e-06
9 *109:12 *1460:B 6.86792e-05
10 *109:12 *1518:B 6.09682e-05
11 *109:12 *181:24 0.000191419
12 *109:12 *212:63 0.000687483
13 *1587:D *1424:A 1.7532e-05
14 *47:79 *1424:A 0.000209237
15 *86:16 *1424:A 8.32545e-06
16 *86:18 *1424:A 1.26112e-05
17 *88:24 *109:12 0.000141729
18 *88:34 *109:12 0.000505024
19 *96:10 *109:12 0.000685053
20 *106:55 *1424:A 8.29974e-06
*RES
1 *1423:X *109:12 49.5321 
2 *109:12 *1424:A 30.0857 
*END

*D_NET *110 0.0181576
*CONN
*I *1427:A I *D sky130_fd_sc_hd__and3_1
*I *1425:Y O *D sky130_fd_sc_hd__nand3_1
*CAP
1 *1427:A 0.00333693
2 *1425:Y 0.000796031
3 *110:16 0.00413296
4 *1427:A *1406:B1 0.000193217
5 *1427:A *1578:CLK 5.68479e-05
6 *1427:A *161:24 0.000225914
7 *1427:A *162:24 0.00119783
8 *1427:A *183:22 2.14378e-05
9 *1427:A *185:35 0.000154703
10 *1427:A *201:14 0.000554615
11 *110:16 *1414:A1 0.000145753
12 *110:16 *1425:A 0.000224308
13 *110:16 *127:24 4.79414e-05
14 *110:16 *185:35 0.000131635
15 *110:16 *221:98 0.000190728
16 *1433:B *110:16 0.000561098
17 *33:22 *1427:A 0.0025627
18 *33:22 *110:16 0.000325666
19 *46:24 *1427:A 0.000107784
20 *48:12 *1427:A 0.000300646
21 *59:8 *110:16 0.000410614
22 *74:22 *1427:A 0.000131609
23 *95:78 *1427:A 0.000108872
24 *95:78 *110:16 0.000970388
25 *97:44 *110:16 5.90443e-06
26 *105:52 *1427:A 0.000426482
27 *105:77 *1427:A 0.000834967
*RES
1 *1425:Y *110:16 42.587 
2 *110:16 *1427:A 41.7412 
*END

*D_NET *111 0.0109018
*CONN
*I *1427:C I *D sky130_fd_sc_hd__and3_1
*I *1426:X O *D sky130_fd_sc_hd__a21o_1
*CAP
1 *1427:C 0
2 *1426:X 0
3 *111:6 0.00364101
4 *111:4 0.00364101
5 *111:6 *1553:A 8.03715e-05
6 *111:6 *1586:CLK 0.000713645
7 *111:6 *180:8 9.86486e-06
8 *1586:D *111:6 5.49995e-05
9 *1586:RESET_B *111:6 0.000303801
10 *73:12 *111:6 0.00245713
*RES
1 *1426:X *111:4 9.3 
2 *111:4 *111:6 49.8929 
3 *111:6 *1427:C 9.3 
*END

*D_NET *112 0.00379133
*CONN
*I *1428:A I *D sky130_fd_sc_hd__buf_1
*I *1427:X O *D sky130_fd_sc_hd__and3_1
*CAP
1 *1428:A 0.00058397
2 *1427:X 0.00058397
3 *1428:A *1486:A3 0.000452597
4 *1428:A *1578:CLK 0.000266501
5 *1428:A *115:54 0.000674625
6 *1428:A *183:22 0.000167042
7 *1428:A *207:30 0.000265024
8 *1428:A *217:29 0.0001703
9 *39:8 *1428:A 0.000627296
*RES
1 *1427:X *1428:A 48.8679 
*END

*D_NET *113 0.00232102
*CONN
*I *1430:C I *D sky130_fd_sc_hd__and3b_1
*I *1429:X O *D sky130_fd_sc_hd__a31o_1
*CAP
1 *1430:C 0.000742993
2 *1429:X 0.000742993
3 *1430:C *1406:A2 0.000311199
4 *1430:C *1486:A3 5.49489e-05
5 *1430:C *114:12 9.11048e-06
6 *94:12 *1430:C 1.46231e-05
7 *95:123 *1430:C 0.000445148
*RES
1 *1429:X *1430:C 40.0286 
*END

*D_NET *114 0.0126978
*CONN
*I *1431:A I *D sky130_fd_sc_hd__clkbuf_1
*I *1430:X O *D sky130_fd_sc_hd__and3b_1
*CAP
1 *1431:A 0
2 *1430:X 0.00204627
3 *114:24 0.00124404
4 *114:12 0.00329031
5 *114:24 *1452:C 6.06074e-05
6 *114:24 *184:84 0.000139344
7 *114:24 *205:14 0.000379444
8 *114:24 *208:32 0.000748293
9 an[5] *114:24 7.83659e-05
10 *1430:C *114:12 9.11048e-06
11 *1560:RESET_B *114:24 0.00163046
12 *1578:RESET_B *114:12 0.00254667
13 *1583:D *114:24 1.91998e-05
14 *1583:RESET_B *114:24 0.000137639
15 *1586:D *114:24 9.22342e-05
16 *66:10 *114:24 0.000275835
*RES
1 *1430:X *114:12 47.8 
2 *114:12 *114:24 42.5357 
3 *114:24 *1431:A 9.3 
*END

*D_NET *115 0.0513611
*CONN
*I *1466:A I *D sky130_fd_sc_hd__and3_1
*I *1479:A I *D sky130_fd_sc_hd__and3_1
*I *1455:A I *D sky130_fd_sc_hd__and3_1
*I *1485:C1 I *D sky130_fd_sc_hd__o211a_1
*I *1442:A I *D sky130_fd_sc_hd__and3_1
*I *1490:A I *D sky130_fd_sc_hd__and3_1
*I *1471:A I *D sky130_fd_sc_hd__and3_1
*I *1435:A I *D sky130_fd_sc_hd__and3_1
*I *1514:B1 I *D sky130_fd_sc_hd__o211a_1
*I *1462:A I *D sky130_fd_sc_hd__and3_1
*I *1432:X O *D sky130_fd_sc_hd__clkbuf_4
*CAP
1 *1466:A 0.000113474
2 *1479:A 0
3 *1455:A 0.000123463
4 *1485:C1 0.000736145
5 *1442:A 0
6 *1490:A 2.84912e-05
7 *1471:A 0.000159828
8 *1435:A 2.00462e-05
9 *1514:B1 0
10 *1462:A 0.000555343
11 *1432:X 0.00111919
12 *115:127 0.00033664
13 *115:106 0.00316621
14 *115:100 0.00236767
15 *115:91 6.77929e-05
16 *115:87 0.0026715
17 *115:54 0.00456782
18 *115:52 0.00458362
19 *115:45 7.02462e-05
20 *115:30 0.00137241
21 *115:20 0.00112395
22 *115:14 0.00113276
23 *115:8 0.00468302
24 *1435:A *1435:C 1.02132e-05
25 *1455:A *229:DIODE 2.26377e-05
26 *1455:A *130:38 1.07719e-05
27 *1455:A *131:18 0.000257914
28 *1455:A *132:8 9.22015e-05
29 *1462:A *1514:C1 4.46186e-06
30 *1462:A *154:16 0.000188957
31 *1462:A *184:24 0
32 *1462:A *211:108 0.000747395
33 *1466:A *1408:B 5.33005e-05
34 *1466:A *124:14 0.000285891
35 *1466:A *224:18 5.33005e-05
36 *1471:A *230:DIODE 8.99579e-05
37 *1471:A *1471:C 6.28499e-05
38 *1471:A *206:40 0.000180501
39 *1485:C1 *1485:A2 1.90036e-05
40 *1485:C1 *1559:A 1.12323e-05
41 *1485:C1 *116:10 0.00156676
42 *1485:C1 *152:18 5.52302e-05
43 *1485:C1 *191:84 1.20729e-05
44 *1485:C1 *191:86 0.000521418
45 *115:8 *189:28 0.00010613
46 *115:14 *144:14 0.000793464
47 *115:14 *154:16 9.64387e-05
48 *115:14 *206:14 0.000412333
49 *115:20 *154:16 0.000160125
50 *115:20 *164:12 6.89839e-05
51 *115:30 *1514:C1 7.41317e-05
52 *115:30 *1521:A 0.000194156
53 *115:30 *154:16 0.00019674
54 *115:30 *164:12 0.000447142
55 *115:30 *166:26 0.000101771
56 *115:30 *184:14 0
57 *115:30 *184:24 0
58 *115:30 *194:22 9.37778e-05
59 *115:52 *1514:A2 1.04232e-05
60 *115:54 *1435:C 8.27582e-05
61 *115:54 *1497:C 0.000251463
62 *115:54 *1497:D 0.000135028
63 *115:54 *1514:A2 2.79421e-05
64 *115:54 *118:12 2.21295e-05
65 *115:54 *147:34 7.02611e-05
66 *115:54 *163:12 0.000186669
67 *115:54 *213:81 0.000203264
68 *115:87 *141:28 7.99921e-05
69 *115:87 *206:14 0.00152559
70 *115:91 *124:14 0.00010326
71 *115:100 *124:14 0.00010326
72 *115:106 *139:33 6.66223e-05
73 *115:106 *175:70 0.000176425
74 *115:106 *221:98 0.000246744
75 *115:106 *225:71 8.43535e-06
76 *115:106 *225:75 0.000689885
77 *115:127 *1479:C 0.000124212
78 *115:127 *116:10 0.000525981
79 *115:127 *131:18 4.86742e-05
80 *115:127 *132:8 0.000226217
81 *1420:B *1490:A 5.52302e-05
82 *1428:A *115:54 0.000674625
83 *1432:A *115:8 0.00114189
84 *1445:C1 *115:106 0.000306498
85 *1504:A *1466:A 0.000276641
86 *1504:A *115:91 0.000104974
87 *1504:A *115:100 9.30093e-05
88 *1562:D *115:54 0.000113705
89 *1586:D *115:54 5.4065e-05
90 *27:14 *115:87 2.50047e-05
91 *39:8 *115:54 0.00023763
92 *45:18 *1471:A 0.00022608
93 *45:28 *115:14 6.76272e-05
94 *50:10 *115:14 4.58764e-05
95 *50:10 *115:87 0.00153412
96 *50:18 *115:14 0
97 *54:18 *115:14 0.000229718
98 *54:18 *115:87 0.000135563
99 *68:10 *1485:C1 0.00212616
100 *68:10 *115:127 0.000517445
101 *74:22 *115:54 0.000152412
102 *84:10 *115:30 0.000175103
103 *95:55 *115:14 0.00108593
104 *95:55 *115:20 0.000153565
105 *104:45 *115:20 0.00016114
106 *104:45 *115:30 0.000760957
*RES
1 *1432:X *115:8 28.3 
2 *115:8 *115:14 28.7143 
3 *115:14 *115:20 5.33929 
4 *115:20 *115:30 23 
5 *115:30 *1462:A 25.5857 
6 *115:30 *115:45 5.03571 
7 *115:45 *1514:B1 9.3 
8 *115:45 *115:52 0.732143 
9 *115:52 *115:54 56.8036 
10 *115:54 *1435:A 9.72857 
11 *115:20 *1471:A 18.4607 
12 *115:14 *1490:A 14.3357 
13 *115:8 *115:87 48 
14 *115:87 *115:91 5.83929 
15 *115:91 *1442:A 13.8 
16 *115:91 *115:100 1.33929 
17 *115:100 *115:106 37.4643 
18 *115:106 *1485:C1 43.55 
19 *115:106 *115:127 13.9107 
20 *115:127 *1455:A 12.7107 
21 *115:127 *1479:A 9.3 
22 *115:100 *1466:A 18.1036 
*END

*D_NET *116 0.0224133
*CONN
*I *1435:B I *D sky130_fd_sc_hd__and3_1
*I *1433:Y O *D sky130_fd_sc_hd__nand2_1
*CAP
1 *1435:B 0.00542929
2 *1433:Y 0.00136185
3 *116:10 0.00679114
4 *1435:B *117:10 0.00141062
5 *1435:B *118:12 0.000154011
6 *1435:B *148:10 0.000943251
7 *1435:B *181:107 0
8 *116:10 *1433:A 7.62323e-05
9 *116:10 *131:18 0.00070346
10 *116:10 *191:84 0.000114109
11 *1485:C1 *116:10 0.00156676
12 *1580:RESET_B *116:10 0.000225984
13 *58:20 *116:10 0.000297259
14 *68:10 *116:10 5.40984e-05
15 *81:14 *1435:B 0.000694595
16 *84:34 *1435:B 0.000880271
17 *91:10 *1435:B 0.00118438
18 *115:127 *116:10 0.000525981
*RES
1 *1433:Y *116:10 49.5232 
2 *116:10 *1435:B 41.4445 
*END

*D_NET *117 0.0181229
*CONN
*I *1435:C I *D sky130_fd_sc_hd__and3_1
*I *1434:X O *D sky130_fd_sc_hd__or2_1
*CAP
1 *1435:C 0.00028869
2 *1434:X 0.00146676
3 *117:10 0.00200608
4 *117:8 0.00318415
5 *1435:C *118:12 2.02863e-05
6 *117:8 *1524:A1 0.000261878
7 *117:10 *148:10 6.16958e-05
8 *1435:A *1435:C 1.02132e-05
9 *1435:B *117:10 0.00141062
10 *1524:B1_N *117:8 0.00107343
11 *81:12 *117:10 1.71615e-05
12 *81:14 *117:10 0.00102173
13 *84:34 *117:10 0.00343716
14 *91:10 *117:10 0.00378033
15 *115:54 *1435:C 8.27582e-05
*RES
1 *1434:X *117:8 32.8179 
2 *117:8 *117:10 69.6429 
3 *117:10 *1435:C 18.6571 
*END

*D_NET *118 0.00634226
*CONN
*I *1436:A I *D sky130_fd_sc_hd__clkbuf_1
*I *1435:X O *D sky130_fd_sc_hd__and3_1
*CAP
1 *1436:A 0.000624741
2 *1435:X 0.00139787
3 *118:12 0.00202261
4 *1436:A *153:8 0.000942476
5 *118:12 *148:10 0
6 *1435:B *118:12 0.000154011
7 *1435:C *118:12 2.02863e-05
8 *68:8 *1436:A 6.34664e-05
9 *88:46 *118:12 0.00109467
10 *115:54 *118:12 2.21295e-05
*RES
1 *1435:X *118:12 49.2286 
2 *118:12 *1436:A 22.175 
*END

*D_NET *119 0.0102453
*CONN
*I *1439:B I *D sky130_fd_sc_hd__nor3_1
*I *1437:Y O *D sky130_fd_sc_hd__a21oi_1
*CAP
1 *1439:B 0
2 *1437:Y 0.000154504
3 *119:10 0.00163735
4 *119:8 0.00179185
5 *119:8 *154:12 0.000126639
6 *119:10 *1396:A 0.00144515
7 *119:10 *1437:B1 0
8 *119:10 *1512:A 0.00105484
9 *119:10 *125:12 0.000492643
10 *119:10 *163:56 0.000259258
11 *119:10 *182:18 0.000130458
12 *119:10 *189:80 0.000403107
13 *119:10 *209:60 0
14 *119:10 *209:70 0.000171203
15 *119:10 *210:36 0.00018039
16 *119:10 *218:20 0.00168247
17 *1586:RESET_B *119:10 0
18 *73:12 *119:10 0.000494347
19 *106:14 *119:10 0.0001592
20 *106:55 *119:10 6.18857e-05
*RES
1 *1437:Y *119:8 15.9786 
2 *119:8 *119:10 52.6429 
3 *119:10 *1439:B 13.8 
*END

*D_NET *120 0.0189923
*CONN
*I *1440:B I *D sky130_fd_sc_hd__or2_1
*I *1439:C I *D sky130_fd_sc_hd__nor3_1
*I *1441:B I *D sky130_fd_sc_hd__nand2_1
*I *1438:X O *D sky130_fd_sc_hd__and3_1
*CAP
1 *1440:B 0.000674944
2 *1439:C 0.000289268
3 *1441:B 0
4 *1438:X 0.000237467
5 *120:42 0.00130363
6 *120:30 0.00315787
7 *120:8 0.00247738
8 *1440:B *1421:A 0.00014041
9 *1440:B *1421:B 1.03904e-05
10 *1440:B *1530:A 8.33559e-05
11 *1440:B *165:37 0.00010694
12 *1440:B *181:28 0.000160403
13 *1440:B *181:32 0.000125731
14 *1440:B *191:30 0.000131778
15 *1440:B *200:100 0.00163732
16 *1440:B *200:129 2.02794e-05
17 *1440:B *211:18 0.00163507
18 *120:30 *1539:A 9.99853e-05
19 *120:30 *156:10 0.000289856
20 *120:30 *165:37 0.000110199
21 *120:30 *181:32 0.00031345
22 *120:30 *196:43 1.83136e-05
23 *120:30 *210:14 1.13406e-05
24 *120:42 *1392:C 0.000191195
25 *120:42 *1451:B 0.000992592
26 *120:42 *1462:B 0
27 *120:42 *1520:A 2.33986e-05
28 *120:42 *127:24 0.000546509
29 *120:42 *141:10 0.000100926
30 *120:42 *143:41 0.000539821
31 *120:42 *166:26 0.000249046
32 *120:42 *205:61 7.48679e-06
33 *120:42 *208:14 0.000165309
34 *120:42 *208:18 2.06112e-05
35 *120:42 *208:75 0.000121078
36 *120:42 *210:22 0
37 *1561:RESET_B *120:30 3.69697e-05
38 *1566:RESET_B *120:42 0.000685161
39 *1572:RESET_B *120:30 0.000139293
40 *1573:RESET_B *120:42 1.48029e-05
41 *23:32 *120:42 1.579e-05
42 *26:8 *120:30 0.000374458
43 *42:10 *120:30 7.6644e-05
44 *55:20 *120:42 0.000241294
45 *57:16 *1439:C 0.000581184
46 *57:16 *120:30 0.000154057
47 *66:10 *120:30 0.000288141
48 *75:12 *1440:B 8.97396e-05
49 *95:55 *120:8 0.000301438
*RES
1 *1438:X *120:8 16.8 
2 *120:8 *120:30 48.3839 
3 *120:30 *120:42 43.8125 
4 *120:42 *1441:B 9.3 
5 *120:30 *1439:C 15.3982 
6 *120:8 *1440:B 42.4607 
*END

*D_NET *121 0.00634998
*CONN
*I *1442:B I *D sky130_fd_sc_hd__and3_1
*I *1440:X O *D sky130_fd_sc_hd__or2_1
*CAP
1 *1442:B 0
2 *1440:X 0.00203091
3 *121:12 0.00203091
4 *121:12 *1425:B 0.000343938
5 *121:12 *1440:A 0.000961923
6 *121:12 *124:14 8.00806e-05
7 *121:12 *212:16 0
8 *88:8 *121:12 0.000902216
*RES
1 *1440:X *121:12 45.7464 
2 *121:12 *1442:B 9.3 
*END

*D_NET *122 0.0147313
*CONN
*I *1442:C I *D sky130_fd_sc_hd__and3_1
*I *1445:A2 I *D sky130_fd_sc_hd__a211oi_1
*I *1441:Y O *D sky130_fd_sc_hd__nand2_1
*CAP
1 *1442:C 0.000188876
2 *1445:A2 0
3 *1441:Y 0.000284012
4 *122:32 0.000800399
5 *122:12 0.00235468
6 *122:8 0.00202717
7 *1442:C *124:14 0.00018567
8 *1442:C *188:105 0.000196506
9 *1442:C *225:71 3.98568e-05
10 *122:8 *1441:A 0.000312767
11 *122:8 *170:45 0.000410699
12 *122:8 *193:26 0.00110777
13 *122:12 *134:40 3.66495e-05
14 *122:12 *155:22 0.000809578
15 *122:12 *155:34 0.00197633
16 *122:12 *167:24 0.000125685
17 *122:12 *222:36 0.000250109
18 *122:32 *167:24 0.000522565
19 *122:32 *188:105 1.59312e-05
20 *122:32 *212:16 2.30116e-06
21 *122:32 *221:74 1.19114e-05
22 *122:32 *227:26 0.000149912
23 *1424:A *122:12 9.19324e-05
24 *1424:A *122:32 0.000480689
25 *1504:A *1442:C 0
26 *1504:A *122:32 0
27 *24:14 *122:12 0.000175557
28 *47:79 *122:12 0.00028369
29 *47:105 *1442:C 0.000101444
30 *47:105 *122:32 0.000599465
31 *54:18 *122:32 1.47728e-05
32 *86:18 *122:12 0
33 *86:18 *122:32 0.000254287
34 *94:30 *122:12 0.0006146
35 *104:22 *122:12 0.00019232
36 *106:55 *122:32 0.000113195
*RES
1 *1441:Y *122:8 24.6036 
2 *122:8 *122:12 48.5804 
3 *122:12 *122:32 22.741 
4 *122:32 *1445:A2 13.8 
5 *122:32 *1442:C 19.175 
*END

*D_NET *123 0.00472452
*CONN
*I *1443:A I *D sky130_fd_sc_hd__buf_1
*I *1442:X O *D sky130_fd_sc_hd__and3_1
*CAP
1 *1443:A 0
2 *1442:X 0.00178193
3 *123:12 0.00178193
4 *123:12 *1395:A 0.000203675
5 *123:12 *1408:B 8.31087e-05
6 *123:12 *1480:A 6.02223e-05
7 *123:12 *1491:A 0.00020268
8 *123:12 *1522:C 8.25512e-05
9 *123:12 *1565:CLK 0
10 *123:12 *139:33 7.96948e-05
11 *123:12 *162:24 2.06112e-05
12 *123:12 *179:132 4.30917e-05
13 *123:12 *185:8 0
14 *123:12 *188:105 0.000177545
15 *123:12 *190:69 2.39923e-05
16 *123:12 *216:18 0
17 *123:12 *223:35 7.97841e-05
18 *123:12 *225:71 0.000103702
19 *102:26 *123:12 0
*RES
1 *1442:X *123:12 47.8893 
2 *123:12 *1443:A 9.3 
*END

*D_NET *124 0.00434333
*CONN
*I *1445:A1 I *D sky130_fd_sc_hd__a211oi_1
*I *1444:Y O *D sky130_fd_sc_hd__inv_2
*CAP
1 *1445:A1 0
2 *1444:Y 0.000909179
3 *124:14 0.000909179
4 *124:14 *1444:A 9.41642e-05
5 *124:14 *179:100 0.000223597
6 *124:14 *179:132 0.000126109
7 *124:14 *188:105 7.44262e-05
8 *124:14 *212:16 0
9 *1442:C *124:14 0.00018567
10 *1445:C1 *124:14 0.000139491
11 *1466:A *124:14 0.000285891
12 *1504:A *124:14 0.000309701
13 *1580:RESET_B *124:14 0.000200689
14 *47:105 *124:14 0.000545333
15 *54:18 *124:14 5.33005e-05
16 *115:91 *124:14 0.00010326
17 *115:100 *124:14 0.00010326
18 *121:12 *124:14 8.00806e-05
*RES
1 *1444:Y *124:14 41.9786 
2 *124:14 *1445:A1 9.3 
*END

*D_NET *125 0.0106422
*CONN
*I *1448:A I *D sky130_fd_sc_hd__and3_1
*I *1446:X O *D sky130_fd_sc_hd__or2_1
*CAP
1 *1448:A 0.00138374
2 *1446:X 0.00120041
3 *125:12 0.00258415
4 *1448:A *185:20 0.000101915
5 *1448:A *185:35 0.000300915
6 *1448:A *187:22 0.000124157
7 *1448:A *191:84 0.000113521
8 *1448:A *217:35 1.25275e-05
9 *125:12 *1451:B 5.45307e-05
10 *125:12 *1464:A1 2.91888e-05
11 *125:12 *182:14 2.06178e-05
12 *125:12 *209:70 0.000526278
13 *125:12 *209:85 0.00012958
14 *125:12 *225:16 0.000144038
15 *125:12 *225:30 0.000284793
16 *125:12 *225:71 0.000639291
17 *1399:B *1448:A 0.000890983
18 *1446:B *125:12 0.000219289
19 *1448:B *1448:A 0.000145239
20 *47:56 *125:12 0.000135376
21 *47:64 *125:12 0.000168502
22 *65:14 *1448:A 0.000507868
23 *97:22 *125:12 8.40933e-05
24 *106:55 *125:12 0.000348571
25 *119:10 *125:12 0.000492643
*RES
1 *1446:X *125:12 47.8714 
2 *125:12 *1448:A 44.3 
*END

*D_NET *126 0.00767148
*CONN
*I *1448:C I *D sky130_fd_sc_hd__and3_1
*I *1447:Y O *D sky130_fd_sc_hd__nand2_1
*CAP
1 *1448:C 0.000367797
2 *1447:Y 0.00141658
3 *126:16 0.00178437
4 *1448:C *1463:A 0.000382821
5 *1448:C *1525:A 0.000225988
6 *1448:C *156:25 0.000212719
7 *126:16 *155:22 0.000446145
8 *126:16 *156:25 0.000154535
9 *126:16 *179:6 9.41642e-05
10 *126:16 *179:75 0.000492018
11 *126:16 *224:12 0.000347662
12 *126:16 *224:18 9.98998e-06
13 *1587:D *126:16 5.90747e-05
14 *23:16 *1448:C 0.00059634
15 *65:24 *126:16 0.000261801
16 *86:18 *126:16 0.000819476
*RES
1 *1447:Y *126:16 43.2821 
2 *126:16 *1448:C 19.1393 
*END

*D_NET *127 0.0146378
*CONN
*I *1449:A I *D sky130_fd_sc_hd__clkbuf_1
*I *1448:X O *D sky130_fd_sc_hd__and3_1
*CAP
1 *1449:A 4.77546e-05
2 *1448:X 0.00555437
3 *127:24 0.00560212
4 *1449:A *1451:B 9.87259e-05
5 *1449:A *165:16 9.83442e-05
6 *127:24 *1462:B 0
7 *127:24 *128:20 0
8 *127:24 *135:14 0
9 *127:24 *143:41 0
10 *127:24 *146:10 0.000185417
11 *127:24 *147:99 0.000591892
12 *127:24 *165:16 9.14771e-06
13 *127:24 *175:18 7.93797e-05
14 *127:24 *188:76 5.5766e-05
15 *127:24 *205:61 5.30639e-05
16 *127:24 *207:20 0.000108872
17 *127:24 *208:75 9.09539e-05
18 *127:24 *223:35 1.28958e-05
19 *127:24 *226:20 0.000114398
20 *33:22 *127:24 0.000966668
21 *80:16 *127:24 0
22 *94:30 *127:24 1.10422e-05
23 *95:32 *1449:A 2.36643e-05
24 *95:32 *127:24 3.006e-05
25 *95:78 *127:24 0.000153613
26 *97:44 *127:24 0.00015525
27 *110:16 *127:24 4.79414e-05
28 *120:42 *127:24 0.000546509
*RES
1 *1448:X *127:24 47.2405 
2 *127:24 *1449:A 15.5679 
*END

*D_NET *128 0.0218109
*CONN
*I *1452:B I *D sky130_fd_sc_hd__nor3_1
*I *1450:Y O *D sky130_fd_sc_hd__a21oi_2
*CAP
1 *1452:B 0.0020532
2 *1450:Y 0.00439021
3 *128:20 0.00644341
4 *1452:B *1452:C 2.11419e-05
5 *1452:B *206:40 2.11419e-05
6 *128:20 *1459:C 0.000100285
7 *128:20 *1502:A 0
8 *128:20 *1544:A 0.000211432
9 *128:20 *133:22 0.00165523
10 *128:20 *137:24 0.00392009
11 *128:20 *145:16 0.000325999
12 *128:20 *146:10 1.721e-05
13 *128:20 *163:12 0.000118823
14 *128:20 *167:24 0
15 *128:20 *175:70 5.49489e-05
16 *128:20 *180:143 0.000514152
17 *128:20 *182:18 0
18 *128:20 *208:81 0
19 *128:20 *221:74 0.000533946
20 *1413:C *128:20 0.000140331
21 *1433:B *128:20 7.80519e-05
22 *1445:C1 *128:20 0.000306163
23 *1566:D *1452:B 0
24 *27:14 *128:20 0.000125449
25 *44:26 *1452:B 0.000116494
26 *59:8 *128:20 0.000493521
27 *93:18 *128:20 0
28 *103:33 *128:20 0.000169715
29 *127:24 *128:20 0
*RES
1 *1450:Y *128:20 47.366 
2 *128:20 *1452:B 21.2452 
*END

*D_NET *129 0.0397776
*CONN
*I *1457:A2 I *D sky130_fd_sc_hd__a21oi_2
*I *1454:B I *D sky130_fd_sc_hd__nand2_1
*I *1474:D I *D sky130_fd_sc_hd__and4_1
*I *1458:C I *D sky130_fd_sc_hd__and3_2
*I *1453:B I *D sky130_fd_sc_hd__or2_1
*I *1452:C I *D sky130_fd_sc_hd__nor3_1
*I *1451:X O *D sky130_fd_sc_hd__and4_4
*CAP
1 *1457:A2 0.000828094
2 *1454:B 0.000274629
3 *1474:D 0.000162922
4 *1458:C 0.000193796
5 *1453:B 0
6 *1452:C 0.000426607
7 *1451:X 4.62609e-05
8 *129:120 0.00173717
9 *129:103 0.00437582
10 *129:97 0.00450251
11 *129:66 0.00239561
12 *129:64 0.00223001
13 *129:35 0.00180856
14 *129:8 0.00132919
15 *1452:C *1595:A 0.00018116
16 *1452:C *190:14 0.000122523
17 *1452:C *205:14 6.38485e-05
18 *1452:C *206:40 0.000219582
19 *1454:B *1476:B1 0.000433712
20 *1454:B *1516:A_N 0.000382744
21 *1454:B *1516:B 1.38323e-05
22 *1454:B *187:22 0.000260152
23 *1457:A2 *1457:A1 0.000402303
24 *1457:A2 *1457:B1 0.000577069
25 *1457:A2 *1540:A 0
26 *1457:A2 *1541:A 0.000126439
27 *1457:A2 *199:36 2.55889e-05
28 *1458:C *1397:A 6.72124e-05
29 *1458:C *1458:A 0.000139202
30 *1474:D *1547:A 2.21751e-05
31 *1474:D *191:43 1.07719e-05
32 *1474:D *191:70 3.63281e-05
33 *1474:D *213:6 5.65955e-05
34 *1474:D *213:31 4.17433e-05
35 *129:35 *1451:A 0.000143173
36 *129:35 *1453:A 8.11174e-05
37 *129:35 *201:38 0.000665374
38 *129:64 *200:57 2.79421e-05
39 *129:64 *200:88 0.00113552
40 *129:64 *202:20 9.97164e-05
41 *129:64 *202:49 0.000158558
42 *129:64 *221:12 0.000551442
43 *129:66 *161:24 0
44 *129:66 *189:14 2.00842e-05
45 *129:66 *200:88 0.000697191
46 *129:66 *202:49 0.000979892
47 *129:66 *202:66 3.14003e-05
48 *129:66 *221:74 0.000735146
49 *129:97 *1457:A1 0
50 *129:97 *1457:B1 0.000201552
51 *129:97 *1523:A 1.28921e-05
52 *129:97 *1540:A 6.17734e-05
53 *129:97 *168:52 1.15615e-06
54 *129:97 *202:66 0.000454991
55 *129:103 *1575:CLK 0.000160302
56 *129:103 *191:43 0.000967923
57 *129:103 *203:88 9.7659e-05
58 *129:103 *206:8 1.11474e-05
59 *129:103 *213:31 0.000354511
60 *129:120 *1517:C1 5.05056e-05
61 *129:120 *146:10 0
62 *129:120 *152:18 0.00043775
63 *129:120 *191:70 0.000799966
64 *129:120 *191:72 0.00104959
65 *129:120 *191:84 0.000235871
66 *129:120 *207:20 0
67 *129:120 *207:122 0
68 *129:120 *226:20 0
69 *1451:C *1452:C 1.36181e-05
70 *1451:C *129:8 9.71197e-05
71 *1451:C *129:35 0.000156737
72 *1452:B *1452:C 2.11419e-05
73 *1505:C1 *129:97 8.80625e-05
74 *1560:RESET_B *1452:C 0.000306473
75 *1564:RESET_B *129:64 0
76 *1575:D *129:97 6.8529e-05
77 *1575:D *129:103 9.71683e-05
78 *1575:RESET_B *1457:A2 0
79 *1575:RESET_B *129:97 0.000102705
80 *1579:RESET_B *129:64 0
81 *1581:RESET_B *1474:D 0
82 *1583:RESET_B *1452:C 0.000151417
83 *23:16 *129:120 0.00105172
84 *34:18 *129:120 3.4075e-05
85 *40:12 *129:35 0
86 *45:18 *129:8 0.000137983
87 *56:20 *1457:A2 0
88 *62:8 *1457:A2 0.000226405
89 *66:10 *1452:C 5.09595e-05
90 *77:12 *129:64 0.000507757
91 *92:14 *129:120 0
92 *95:32 *129:35 2.59355e-05
93 *95:55 *129:35 6.09764e-05
94 *96:33 *1452:C 9.54798e-06
95 *96:33 *129:35 2.02509e-05
96 *98:28 *129:64 0.000153354
97 *99:10 *129:66 0
98 *101:12 *129:120 0.00202804
99 *104:22 *129:35 0.00014572
100 *104:45 *129:35 0.000347174
101 *108:20 *129:64 9.58181e-05
102 *114:24 *1452:C 6.06074e-05
*RES
1 *1451:X *129:8 15.1571 
2 *129:8 *1452:C 26.1214 
3 *129:8 *129:35 23.4821 
4 *129:35 *1453:B 9.3 
5 *129:35 *129:64 48.7143 
6 *129:64 *129:66 31.6964 
7 *129:66 *1458:C 16.3893 
8 *129:66 *129:97 30.75 
9 *129:97 *129:103 43.3929 
10 *129:103 *1474:D 21.9071 
11 *129:103 *129:120 48.6429 
12 *129:120 *1454:B 21.3357 
13 *129:97 *1457:A2 45.05 
*END

*D_NET *130 0.0275641
*CONN
*I *1455:B I *D sky130_fd_sc_hd__and3_1
*I *229:DIODE I *D sky130_fd_sc_hd__diode_2
*I *1453:X O *D sky130_fd_sc_hd__or2_1
*CAP
1 *1455:B 0
2 *229:DIODE 0.000189929
3 *1453:X 0.00178587
4 *130:38 0.00635894
5 *130:22 0.00795488
6 *130:22 *1416:C1 0.000404576
7 *130:22 *1453:A 5.49544e-05
8 *130:22 *1482:B 4.57637e-05
9 *130:22 *165:16 0
10 *130:22 *206:26 0.000432895
11 *130:22 *211:85 1.14338e-05
12 *130:38 *1482:B 0.000139605
13 *130:38 *1502:A 0
14 *130:38 *132:8 0.00012864
15 *130:38 *136:24 0.000121413
16 *130:38 *147:166 0.00016738
17 *130:38 *151:22 0.000108872
18 *130:38 *158:22 0.00328648
19 *130:38 *167:24 0.00185793
20 *130:38 *169:10 4.49358e-05
21 *130:38 *179:132 0.000132088
22 *1400:A *130:22 0.000281817
23 *1400:A *130:38 0.000171296
24 *1455:A *229:DIODE 2.26377e-05
25 *1455:A *130:38 1.07719e-05
26 *1566:D *130:22 0.000120674
27 *1566:D *130:38 0.000535467
28 *1573:RESET_B *130:22 0
29 *1579:RESET_B *130:22 6.39829e-05
30 *25:10 *130:22 6.39829e-05
31 *33:22 *130:38 0.00030811
32 *34:18 *130:38 0
33 *40:12 *130:22 0.000801871
34 *43:10 *130:38 0.000247229
35 *47:39 *130:22 0.000110498
36 *47:56 *130:22 1.01912e-05
37 *76:20 *130:22 1.90936e-05
38 *82:12 *130:22 0.000207128
39 *84:53 *130:38 4.36699e-05
40 *98:37 *130:38 0.000565013
41 *102:26 *130:38 0.000754099
*RES
1 *1453:X *130:22 46.616 
2 *130:22 *130:38 31.6616 
3 *130:38 *229:DIODE 11.4786 
4 *130:38 *1455:B 9.3 
*END

*D_NET *131 0.0104927
*CONN
*I *1455:C I *D sky130_fd_sc_hd__and3_1
*I *1454:Y O *D sky130_fd_sc_hd__nand2_1
*CAP
1 *1455:C 0
2 *1454:Y 0.000727184
3 *131:18 0.0013968
4 *131:12 0.00212398
5 *131:12 *187:22 1.58163e-05
6 *131:18 *1479:C 0.000295493
7 *131:18 *1508:C 0.00182936
8 *131:18 *170:12 0.00115274
9 *131:18 *191:84 8.02568e-05
10 *131:18 *191:86 7.47029e-06
11 *228:DIODE *131:12 0.000121001
12 *1423:B *131:12 3.47578e-05
13 *1423:C *131:12 1.23781e-05
14 *1455:A *131:18 0.000257914
15 *58:20 *131:18 0.00067822
16 *79:12 *131:18 0.000778459
17 *108:30 *131:12 0.000228783
18 *115:127 *131:18 4.86742e-05
19 *116:10 *131:18 0.00070346
*RES
1 *1454:Y *131:12 23.5143 
2 *131:12 *131:18 48.7411 
3 *131:18 *1455:C 9.3 
*END

*D_NET *132 0.0274072
*CONN
*I *1456:A I *D sky130_fd_sc_hd__buf_1
*I *1455:X O *D sky130_fd_sc_hd__and3_1
*CAP
1 *1456:A 0.000158745
2 *1455:X 2.37855e-05
3 *132:16 0.00265512
4 *132:14 0.00326918
5 *132:8 0.00320652
6 *132:6 0.0024575
7 *132:8 *1395:A 0.000265438
8 *132:8 *1479:C 0.000377167
9 *132:8 *1491:A 0.000885403
10 *132:8 *150:8 0.00179147
11 *132:8 *179:132 0.000746904
12 *132:16 *1603:A 0
13 *132:16 *195:18 0.00442157
14 *1455:A *132:8 9.22015e-05
15 *30:6 *132:8 0.000385778
16 *50:10 *132:8 0.000403505
17 *61:10 *132:16 0.00496338
18 *62:10 *132:16 0.00068323
19 *86:16 *132:8 0.000265445
20 *115:127 *132:8 0.000226217
21 *130:38 *132:8 0.00012864
*RES
1 *1455:X *132:6 9.72857 
2 *132:6 *132:8 62.7589 
3 *132:8 *132:14 15.1161 
4 *132:14 *132:16 89.6786 
5 *132:16 *1456:A 16.3893 
*END

*D_NET *133 0.0262357
*CONN
*I *1459:B I *D sky130_fd_sc_hd__nor3_1
*I *1457:Y O *D sky130_fd_sc_hd__a21oi_2
*CAP
1 *1459:B 0.0014062
2 *1457:Y 0.00659154
3 *133:22 0.00799774
4 *1459:B *1401:A1 2.16719e-05
5 *1459:B *1459:C 0.000140907
6 *1459:B *1569:CLK 9.20285e-05
7 *1459:B *175:18 0
8 *1459:B *183:64 7.91329e-05
9 *1459:B *187:48 0.000262685
10 *1459:B *188:20 0
11 *1459:B *188:158 9.25616e-05
12 *1459:B *213:33 0
13 *1459:B *213:61 0.000268385
14 *1459:B *213:81 0.000304354
15 *133:22 *140:12 0.00021712
16 *133:22 *142:22 0.000168279
17 *133:22 *167:24 0
18 *133:22 *168:8 0.000152693
19 *133:22 *168:14 0.000313949
20 *133:22 *179:100 0.000158287
21 *133:22 *179:108 0.000175428
22 *133:22 *222:30 0.000735091
23 *1394:B *1459:B 0
24 *1504:A *133:22 0.00011089
25 *1565:D *133:22 0.000162133
26 *1565:RESET_B *133:22 0.000165771
27 *11:23 *133:22 0.00085534
28 *22:18 *1459:B 0.00119827
29 *23:16 *1459:B 0.000482652
30 *27:14 *133:22 0.000124022
31 *47:105 *133:22 0.000392968
32 *47:174 *1459:B 1.59373e-05
33 *56:12 *133:22 0.000795929
34 *103:33 *133:22 0.000263954
35 *107:24 *133:22 0.00083454
36 *128:20 *133:22 0.00165523
*RES
1 *1457:Y *133:22 45.8024 
2 *133:22 *1459:B 47.1661 
*END

*D_NET *134 0.0254074
*CONN
*I *1461:B I *D sky130_fd_sc_hd__nand2_1
*I *1465:C I *D sky130_fd_sc_hd__nand3_1
*I *1460:B I *D sky130_fd_sc_hd__or2_1
*I *1464:A2 I *D sky130_fd_sc_hd__a21o_1
*I *1459:C I *D sky130_fd_sc_hd__nor3_1
*I *1458:X O *D sky130_fd_sc_hd__and3_2
*CAP
1 *1461:B 0.000417357
2 *1465:C 0
3 *1460:B 0.000142358
4 *1464:A2 0
5 *1459:C 0.00121919
6 *1458:X 0.00111751
7 *134:40 0.00224024
8 *134:26 0.00242711
9 *134:14 0.00194776
10 *134:8 0.00221894
11 *1459:C *1407:B 8.43535e-06
12 *1459:C *1407:C 1.98839e-05
13 *1459:C *1407:D 9.58126e-05
14 *1459:C *145:16 0
15 *1459:C *163:12 0.000607881
16 *1459:C *180:14 5.33005e-05
17 *1459:C *180:29 9.67754e-05
18 *1459:C *227:53 0.000451535
19 *1459:C *227:59 0.000191403
20 *1460:B *155:22 4.96113e-05
21 *1460:B *181:24 0.00017803
22 *1461:B *1580:CLK 3.34663e-05
23 *1461:B *1584:CLK 7.70532e-05
24 *1461:B *179:140 0.000321372
25 *1461:B *180:67 0
26 *1461:B *191:43 5.52238e-05
27 *1461:B *202:74 0.000120978
28 *1461:B *203:88 0.000905818
29 *134:8 *1397:A 0.000505553
30 *134:8 *1440:A 8.14387e-05
31 *134:8 *200:129 0.000812249
32 *134:14 *136:24 0.000308495
33 *134:14 *143:10 0.000594483
34 *134:14 *179:140 0.000263732
35 *134:14 *180:67 0
36 *134:14 *203:37 0.000262082
37 *134:14 *203:88 0.00161518
38 *134:26 *1465:B 9.77118e-05
39 *134:26 *1483:A 0.000718098
40 *134:26 *141:10 0
41 *134:26 *180:56 2.30913e-05
42 *134:26 *185:45 0.000117189
43 *134:26 *203:37 7.05721e-05
44 *134:26 *203:45 0.00031947
45 *134:40 *1464:B1 9.41642e-05
46 *134:40 *1484:A3 9.60875e-05
47 *134:40 *185:45 0.000714129
48 *134:40 *227:53 0.000308599
49 *1459:B *1459:C 0.000140907
50 *1498:C1 *1459:C 3.41517e-06
51 *11:23 *134:40 2.06178e-05
52 *24:14 *1459:C 0.00035046
53 *24:14 *134:40 0
54 *47:79 *134:40 8.07807e-05
55 *47:174 *1459:C 0.000229291
56 *65:24 *134:26 0.00012401
57 *65:24 *134:40 0.000360109
58 *66:10 *134:14 0.000331593
59 *67:10 *1459:C 0.000222473
60 *88:24 *134:14 0.000260152
61 *103:33 *134:40 0.00107859
62 *109:12 *1460:B 6.86792e-05
63 *122:12 *134:40 3.66495e-05
64 *128:20 *1459:C 0.000100285
*RES
1 *1458:X *134:8 28.7107 
2 *134:8 *134:14 29.9821 
3 *134:14 *134:26 30.7857 
4 *134:26 *134:40 32 
5 *134:40 *1459:C 47.0679 
6 *134:40 *1464:A2 9.3 
7 *134:26 *1460:B 17.2107 
8 *134:14 *1465:C 9.3 
9 *134:8 *1461:B 25.6929 
*END

*D_NET *135 0.0139956
*CONN
*I *1462:B I *D sky130_fd_sc_hd__and3_1
*I *1460:X O *D sky130_fd_sc_hd__or2_1
*CAP
1 *1462:B 0.00161563
2 *1460:X 0.00162122
3 *135:14 0.00323685
4 *1462:B *136:24 3.08366e-05
5 *1462:B *137:24 6.49154e-05
6 *1462:B *143:41 0.000178725
7 *1462:B *156:10 0.000404905
8 *1462:B *165:16 7.69776e-06
9 *1462:B *166:26 0
10 *1462:B *205:30 0.000225192
11 *1462:B *219:23 7.62323e-05
12 *135:14 *1464:A1 0.00174001
13 *135:14 *1502:A 0.000405634
14 *135:14 *165:16 6.43714e-06
15 *135:14 *181:24 5.33005e-05
16 *135:14 *223:35 3.05384e-05
17 *135:14 *224:12 0.00214936
18 *1562:D *1462:B 0.000673709
19 *1566:D *1462:B 0.000114667
20 *1573:RESET_B *1462:B 0
21 *1586:D *1462:B 0
22 *55:20 *1462:B 0
23 *66:20 *1462:B 0
24 *80:16 *135:14 0.000332329
25 *94:30 *1462:B 4.21517e-05
26 *94:30 *135:14 0.000680909
27 *95:32 *1462:B 9.89573e-05
28 *106:14 *135:14 0.000205417
29 *120:42 *1462:B 0
30 *127:24 *1462:B 0
31 *127:24 *135:14 0
*RES
1 *1460:X *135:14 47.7997 
2 *135:14 *1462:B 49.5582 
*END

*D_NET *136 0.0202864
*CONN
*I *1462:C I *D sky130_fd_sc_hd__and3_1
*I *1461:Y O *D sky130_fd_sc_hd__nand2_1
*CAP
1 *1462:C 1.45385e-05
2 *1461:Y 0.00714842
3 *136:24 0.00716296
4 *1462:C *211:108 1.16848e-05
5 *136:24 *1584:CLK 6.53083e-05
6 *136:24 *142:28 0.00018798
7 *136:24 *143:10 0.000370871
8 *136:24 *156:10 0.000950808
9 *136:24 *161:24 4.70487e-05
10 *136:24 *180:56 0.000299467
11 *136:24 *180:67 6.71336e-05
12 *136:24 *205:61 0.000169655
13 *136:24 *206:40 0.000121503
14 *136:24 *208:32 0.0002129
15 *1462:B *136:24 3.08366e-05
16 *1505:C1 *136:24 9.3166e-05
17 *1566:D *136:24 0.000305985
18 *1586:D *136:24 0.000262956
19 *66:10 *136:24 0.000476818
20 *102:26 *136:24 0.00185643
21 *130:38 *136:24 0.000121413
22 *134:14 *136:24 0.000308495
*RES
1 *1461:Y *136:24 49.5844 
2 *136:24 *1462:C 13.9964 
*END

*D_NET *137 0.0207823
*CONN
*I *1463:A I *D sky130_fd_sc_hd__buf_1
*I *1462:X O *D sky130_fd_sc_hd__and3_1
*CAP
1 *1463:A 0.000112962
2 *1462:X 0.00590966
3 *137:24 0.00602263
4 *1463:A *156:25 0.000382821
5 *137:24 *1429:B1 0.000112793
6 *137:24 *138:10 0.000325748
7 *137:24 *140:12 0.000198909
8 *137:24 *145:16 0.000129719
9 *137:24 *147:28 0.000352003
10 *137:24 *175:18 0.000431833
11 *137:24 *175:43 0.000233307
12 *137:24 *180:14 0.000120387
13 *137:24 *180:29 0.000185888
14 *137:24 *191:84 0
15 *137:24 *208:81 0.000262728
16 *137:24 *219:34 0.000183617
17 *137:24 *227:51 0.000198909
18 *1448:C *1463:A 0.000382821
19 *1462:B *137:24 6.49154e-05
20 *1586:D *137:24 1.84336e-05
21 *74:22 *137:24 0
22 *89:16 *137:24 0.000784063
23 *92:14 *137:24 0.000203669
24 *93:51 *137:24 0.000121008
25 *94:12 *137:24 0.000123361
26 *128:20 *137:24 0.00392009
*RES
1 *1462:X *137:24 47.0438 
2 *137:24 *1463:A 17.6214 
*END

*D_NET *138 0.0111426
*CONN
*I *1466:B I *D sky130_fd_sc_hd__and3_1
*I *1464:X O *D sky130_fd_sc_hd__a21o_1
*CAP
1 *1466:B 0.000220444
2 *1464:X 0.000145851
3 *138:10 0.00163937
4 *138:8 0.00156478
5 *138:8 *1484:A3 4.02038e-05
6 *138:8 *207:80 5.52238e-05
7 *138:10 *140:12 0.000660918
8 *138:10 *179:100 3.42526e-05
9 *138:10 *207:80 0.000123295
10 *138:10 *219:49 0.00363533
11 *138:10 *222:10 6.79782e-05
12 *138:10 *222:30 1.8441e-05
13 *138:10 *227:51 0.00225619
14 *34:18 *1466:B 0.000307936
15 *89:16 *138:10 4.65919e-05
16 *137:24 *138:10 0.000325748
*RES
1 *1464:X *138:8 15.5679 
2 *138:8 *138:10 51.125 
3 *138:10 *1466:B 16.8 
*END

*D_NET *139 0.0132769
*CONN
*I *1466:C I *D sky130_fd_sc_hd__and3_1
*I *1469:B I *D sky130_fd_sc_hd__nand2_1
*I *1470:B I *D sky130_fd_sc_hd__or2_1
*I *1465:Y O *D sky130_fd_sc_hd__nand3_1
*CAP
1 *1466:C 0.000113891
2 *1469:B 0.0018196
3 *1470:B 0
4 *1465:Y 0.000870681
5 *139:33 0.00254518
6 *139:14 0.00148236
7 *1466:C *1408:B 1.95435e-05
8 *1469:B *1469:A 0.000327757
9 *1469:B *1479:C 9.3927e-05
10 *1469:B *1481:A 0.000225579
11 *1469:B *1544:A 5.33005e-05
12 *1469:B *141:28 0.000112469
13 *1469:B *179:75 1.02504e-05
14 *1469:B *179:100 0.000130077
15 *139:14 *1470:A 0
16 *139:14 *141:10 0
17 *139:14 *143:10 5.07795e-05
18 *139:14 *178:14 4.48647e-05
19 *139:14 *180:56 0.000329661
20 *139:14 *180:67 0.00111419
21 *139:33 *1470:A 2.84109e-05
22 *139:33 *1522:B 0.000174317
23 *139:33 *1522:C 0.000137983
24 *139:33 *143:10 3.8554e-05
25 *139:33 *178:14 0.000334446
26 *139:33 *188:113 0.000112995
27 *139:33 *211:28 9.33439e-05
28 *139:33 *225:71 0.000667063
29 *1563:RESET_B *139:14 9.83388e-05
30 *1565:RESET_B *1466:C 0.000303294
31 *1565:RESET_B *1469:B 0.000202204
32 *54:18 *1466:C 0.000311015
33 *54:18 *1469:B 0.000195547
34 *65:14 *1469:B 0.000988958
35 *88:24 *139:14 9.99853e-05
36 *115:106 *139:33 6.66223e-05
37 *123:12 *139:33 7.96948e-05
*RES
1 *1465:Y *139:14 39.1393 
2 *139:14 *1470:B 9.3 
3 *139:14 *139:33 20.875 
4 *139:33 *1469:B 46.9071 
5 *139:33 *1466:C 18.0679 
*END

*D_NET *140 0.00813415
*CONN
*I *1467:A I *D sky130_fd_sc_hd__clkbuf_1
*I *1466:X O *D sky130_fd_sc_hd__and3_1
*CAP
1 *1467:A 0
2 *1466:X 0.0001065
3 *140:12 0.00110027
4 *140:8 0.00120677
5 *140:8 *1408:B 0.000136682
6 *140:12 *168:14 5.72318e-05
7 *140:12 *179:100 0.000454812
8 *140:12 *227:51 0.00165159
9 *27:14 *140:12 0.000966848
10 *89:16 *140:12 0.0013765
11 *133:22 *140:12 0.00021712
12 *137:24 *140:12 0.000198909
13 *138:10 *140:12 0.000660918
*RES
1 *1466:X *140:8 15.1571 
2 *140:8 *140:12 42.875 
3 *140:12 *1467:A 9.3 
*END

*D_NET *141 0.0156116
*CONN
*I *1470:A I *D sky130_fd_sc_hd__or2_1
*I *1469:A I *D sky130_fd_sc_hd__nand2_1
*I *1468:Y O *D sky130_fd_sc_hd__inv_2
*CAP
1 *1470:A 0.000294866
2 *1469:A 0.00089949
3 *1468:Y 0.00147232
4 *141:28 0.00287994
5 *141:10 0.00374763
6 *1469:A *1479:C 0.000183298
7 *1469:A *1481:A 0.000429518
8 *1470:A *143:10 5.63301e-05
9 *1470:A *178:14 1.4279e-05
10 *1470:A *190:69 0
11 *141:10 *1410:B 0
12 *141:10 *1465:B 0.000479727
13 *141:10 *1487:A 0.00151993
14 *141:10 *1487:C 0
15 *141:10 *1487:D 0
16 *141:10 *143:41 0.000461743
17 *141:10 *180:56 0
18 *141:10 *190:69 0
19 *141:10 *208:75 0.000112789
20 *141:10 *210:22 0
21 *141:28 *1481:A 0.000504653
22 *141:28 *151:22 0.00094624
23 *141:28 *155:57 9.91086e-05
24 *1469:B *1469:A 0.000327757
25 *1469:B *141:28 0.000112469
26 *27:14 *141:28 0.000639326
27 *65:14 *141:28 2.42516e-05
28 *76:28 *141:10 9.74665e-05
29 *86:16 *141:28 9.91086e-05
30 *115:87 *141:28 7.99921e-05
31 *120:42 *141:10 0.000100926
32 *134:26 *141:10 0
33 *139:14 *1470:A 0
34 *139:14 *141:10 0
35 *139:33 *1470:A 2.84109e-05
*RES
1 *1468:Y *141:10 46.4429 
2 *141:10 *141:28 43.5893 
3 *141:28 *1469:A 24.9429 
4 *141:10 *1470:A 19.0679 
*END

*D_NET *142 0.0214883
*CONN
*I *1471:B I *D sky130_fd_sc_hd__and3_1
*I *230:DIODE I *D sky130_fd_sc_hd__diode_2
*I *1469:Y O *D sky130_fd_sc_hd__nand2_1
*CAP
1 *1471:B 0
2 *230:DIODE 0.000123483
3 *1469:Y 0.00577874
4 *142:28 0.000892029
5 *142:22 0.00654729
6 *230:DIODE *144:8 0.000139907
7 *230:DIODE *206:40 9.60875e-05
8 *142:22 *147:99 1.36662e-05
9 *142:22 *148:20 7.81998e-05
10 *142:22 *167:24 0.000278882
11 *142:22 *182:14 2.04745e-05
12 *142:28 *1451:A 9.58356e-05
13 *142:28 *143:41 0.000346752
14 *142:28 *163:56 0.000712391
15 *142:28 *196:43 0.000203039
16 *142:28 *206:40 1.5424e-05
17 *1471:A *230:DIODE 8.99579e-05
18 *1588:D *142:22 0.000261134
19 *11:23 *142:22 0.000131761
20 *47:56 *142:22 0.000233343
21 *58:20 *142:22 0.00245973
22 *66:10 *142:28 0.00141522
23 *74:22 *142:22 4.98245e-05
24 *76:20 *142:22 9.31823e-05
25 *84:53 *142:22 0
26 *96:33 *142:28 0.000308592
27 *106:55 *142:22 3.88378e-06
28 *107:24 *142:22 0.000743171
29 *133:22 *142:22 0.000168279
30 *136:24 *142:28 0.00018798
*RES
1 *1469:Y *142:22 43.0805 
2 *142:22 *142:28 26.8125 
3 *142:28 *230:DIODE 12.3179 
4 *142:28 *1471:B 9.3 
*END

*D_NET *143 0.0158862
*CONN
*I *1471:C I *D sky130_fd_sc_hd__and3_1
*I *1476:A2 I *D sky130_fd_sc_hd__a211oi_2
*I *1470:X O *D sky130_fd_sc_hd__or2_1
*CAP
1 *1471:C 6.20632e-05
2 *1476:A2 0.000378209
3 *1470:X 0.00112337
4 *143:41 0.00137497
5 *143:14 0.00178353
6 *143:10 0.00121578
7 *1471:C *1490:C 2.88045e-05
8 *1476:A2 *225:30 0.000342302
9 *143:10 *1597:A 0.000185435
10 *143:10 *156:10 0.00112681
11 *143:10 *178:14 2.97829e-05
12 *143:10 *180:56 1.12578e-05
13 *143:10 *180:67 0.000472343
14 *143:41 *1410:B 0
15 *143:41 *1451:A 0.000219711
16 *143:41 *1451:B 3.97677e-05
17 *143:41 *1539:A 7.51785e-05
18 *143:41 *156:10 0.00024033
19 *143:41 *180:56 4.52652e-05
20 *143:41 *201:38 0.000119738
21 *143:41 *205:30 0.000121083
22 *143:41 *205:61 5.08737e-05
23 *143:41 *206:40 0.000137983
24 *143:41 *208:14 0.000167609
25 *1462:B *143:41 0.000178725
26 *1470:A *143:10 5.63301e-05
27 *1471:A *1471:C 6.28499e-05
28 *1561:RESET_B *1476:A2 0.000638044
29 *1561:RESET_B *143:14 0.000337196
30 *26:8 *1476:A2 0.00104048
31 *26:8 *143:14 0.000180256
32 *40:12 *1471:C 7.29646e-05
33 *45:18 *1471:C 6.47668e-05
34 *45:18 *143:41 5.36e-05
35 *66:10 *143:10 0.00110457
36 *105:112 *143:41 0.000116824
37 *106:8 *143:41 0.000224341
38 *120:42 *143:41 0.000539821
39 *127:24 *143:41 0
40 *134:14 *143:10 0.000594483
41 *136:24 *143:10 0.000370871
42 *139:14 *143:10 5.07795e-05
43 *139:33 *143:10 3.8554e-05
44 *141:10 *143:41 0.000461743
45 *142:28 *143:41 0.000346752
*RES
1 *1470:X *143:10 46.5857 
2 *143:10 *143:14 7.91071 
3 *143:14 *1476:A2 21.8893 
4 *143:14 *143:41 49.2679 
5 *143:41 *1471:C 19.9429 
*END

*D_NET *144 0.00793678
*CONN
*I *1472:A I *D sky130_fd_sc_hd__clkbuf_1
*I *1471:X O *D sky130_fd_sc_hd__and3_1
*CAP
1 *1472:A 0
2 *1471:X 0.000101086
3 *144:14 0.00150723
4 *144:8 0.00160832
5 *144:14 *154:16 0.000379288
6 *144:14 *158:22 0.000820685
7 *144:14 *189:28 0.000125731
8 *144:14 *202:14 1.62193e-05
9 *144:14 *203:18 0.000268889
10 *144:14 *203:31 0.000187873
11 *144:14 *206:14 0.000323749
12 *144:14 *206:26 9.11365e-06
13 *230:DIODE *144:8 0.000139907
14 *25:8 *144:14 1.84865e-05
15 *32:8 *144:14 0.000479063
16 *47:33 *144:14 0.000149824
17 *54:18 *144:14 0.00028777
18 *75:12 *144:14 0.000720084
19 *82:12 *144:14 0
20 *115:14 *144:14 0.000793464
*RES
1 *1471:X *144:8 15.1571 
2 *144:8 *144:14 49.6071 
3 *144:14 *1472:A 9.3 
*END

*D_NET *145 0.0133741
*CONN
*I *1476:A1 I *D sky130_fd_sc_hd__a211oi_2
*I *1473:Y O *D sky130_fd_sc_hd__inv_2
*CAP
1 *1476:A1 0
2 *1473:Y 0.000777589
3 *145:16 0.00175988
4 *145:8 0.00253747
5 *145:8 *1511:B 0.00235713
6 *145:8 *173:8 0.000945834
7 *145:8 *206:40 2.44318e-05
8 *145:16 *147:28 3.65627e-05
9 *145:16 *163:12 0
10 *145:16 *227:53 0
11 *145:16 *227:59 0
12 *1416:B1 *145:16 5.66455e-05
13 *1459:C *145:16 0
14 *1561:RESET_B *145:16 4.58194e-05
15 *26:8 *145:16 9.58126e-05
16 *66:20 *145:8 0.000391976
17 *89:16 *145:16 0.00318545
18 *103:33 *145:16 0.000703773
19 *128:20 *145:16 0.000325999
20 *137:24 *145:16 0.000129719
*RES
1 *1473:Y *145:8 36.925 
2 *145:8 *145:16 49.625 
3 *145:16 *1476:A1 9.3 
*END

*D_NET *146 0.0110103
*CONN
*I *1475:A I *D sky130_fd_sc_hd__buf_4
*I *1474:X O *D sky130_fd_sc_hd__and4_1
*CAP
1 *1475:A 0
2 *1474:X 0.0001222
3 *146:10 0.00194498
4 *146:8 0.00206718
5 *146:10 *147:99 0.000570049
6 *146:10 *147:114 0.000162411
7 *146:10 *147:118 7.6588e-05
8 *146:10 *167:24 0.000179775
9 *146:10 *180:143 0.00147725
10 *146:10 *187:48 2.71996e-05
11 *146:10 *191:70 0
12 *146:10 *207:20 0.000296692
13 *146:10 *226:20 0.00255537
14 *1433:B *146:10 0
15 *1445:C1 *146:10 0.000398458
16 *1581:RESET_B *146:10 0
17 *33:22 *146:10 0.000203997
18 *34:18 *146:10 0
19 *36:12 *146:8 0.000185721
20 *46:24 *146:10 0.000539789
21 *127:24 *146:10 0.000185417
22 *128:20 *146:10 1.721e-05
23 *129:120 *146:10 0
*RES
1 *1474:X *146:8 15.5679 
2 *146:8 *146:10 55.375 
3 *146:10 *1475:A 13.8 
*END

*D_NET *147 0.0502371
*CONN
*I *1478:B I *D sky130_fd_sc_hd__nand2_1
*I *1505:B2 I *D sky130_fd_sc_hd__a221oi_2
*I *1488:A I *D sky130_fd_sc_hd__and2_2
*I *1507:B I *D sky130_fd_sc_hd__and3_2
*I *1476:B1 I *D sky130_fd_sc_hd__a211oi_2
*I *1506:A1 I *D sky130_fd_sc_hd__a21oi_1
*I *1484:A3 I *D sky130_fd_sc_hd__a31o_1
*I *1497:C I *D sky130_fd_sc_hd__and4_1
*I *1477:B I *D sky130_fd_sc_hd__or2_1
*I *1486:A4 I *D sky130_fd_sc_hd__a41o_1
*I *1475:X O *D sky130_fd_sc_hd__buf_4
*CAP
1 *1478:B 1.69531e-05
2 *1505:B2 0.000255684
3 *1488:A 0
4 *1507:B 0.00109727
5 *1476:B1 0.000603765
6 *1506:A1 4.36033e-05
7 *1484:A3 0.000479738
8 *1497:C 0.000117986
9 *1477:B 0.00106668
10 *1486:A4 0.000634203
11 *1475:X 7.56327e-06
12 *147:166 0.00127226
13 *147:149 0.00296503
14 *147:145 0.0030088
15 *147:118 0.00232591
16 *147:114 0.000281981
17 *147:99 0.00130968
18 *147:34 0.00183719
19 *147:28 0.00125298
20 *147:22 0.00192042
21 *147:16 0.000781284
22 *147:10 0.000912425
23 *1476:B1 *1516:B 0.000307715
24 *1476:B1 *176:41 0.000433712
25 *1477:B *1477:A 0.00109598
26 *1477:B *1510:A 0.000397239
27 *1477:B *1511:C 1.32552e-05
28 *1477:B *217:14 0.000523605
29 *1478:B *1478:A 5.33005e-05
30 *1484:A3 *1464:B1 0.00045482
31 *1484:A3 *153:8 0.00151451
32 *1484:A3 *207:80 0.000192555
33 *1484:A3 *209:70 2.18985e-05
34 *1486:A4 *1429:B1 0.000150625
35 *1486:A4 *1486:A1 4.81734e-05
36 *1486:A4 *1486:A2 8.97749e-05
37 *1486:A4 *1486:A3 5.65955e-05
38 *1486:A4 *1486:B1 0.000287242
39 *1486:A4 *180:14 0.000189794
40 *1486:A4 *209:31 4.02462e-05
41 *1486:A4 *219:34 8.98299e-05
42 *1497:C *1497:D 5.33005e-05
43 *1497:C *163:12 0.000188586
44 *1497:C *213:81 0.000692615
45 *1505:B2 *1421:A 9.20773e-05
46 *1505:B2 *1421:B 0.00019177
47 *1505:B2 *1505:A2 0.000309279
48 *1505:B2 *168:52 0.00055116
49 *1505:B2 *201:76 1.39726e-05
50 *1506:A1 *216:54 5.33005e-05
51 *1507:B *1492:B 3.31158e-05
52 *1507:B *181:24 0.000839228
53 *1507:B *187:14 0.000104911
54 *1507:B *212:38 0.000128675
55 *147:16 *188:32 8.87557e-05
56 *147:22 *153:8 0.00135572
57 *147:22 *188:32 0.000146474
58 *147:22 *207:30 0.000197138
59 *147:22 *207:80 0.000495945
60 *147:28 *163:12 0
61 *147:28 *219:34 0.000865138
62 *147:28 *219:47 0.000137992
63 *147:28 *219:49 0.000610325
64 *147:34 *1429:B1 0.000232466
65 *147:34 *213:81 0.000139637
66 *147:34 *219:34 0.000120962
67 *147:99 *187:48 0.000575982
68 *147:118 *180:143 0.000150611
69 *147:145 *1483:B 0.000158428
70 *147:145 *152:18 2.50802e-06
71 *147:145 *180:143 0.000317301
72 *147:145 *207:122 0.000129813
73 *147:145 *208:94 0.000225132
74 *147:145 *219:49 6.72032e-05
75 *147:149 *156:6 2.79201e-05
76 *147:149 *156:25 0.000969107
77 *147:149 *168:14 0.000298483
78 *147:166 *151:22 0.000796073
79 *1437:A2 *1486:A4 0.000151414
80 *1454:B *1476:B1 0.000433712
81 *1476:C1 *1476:B1 9.62729e-05
82 *1561:RESET_B *1476:B1 0.000142788
83 *1576:RESET_B *1478:B 5.33005e-05
84 *1580:D *147:166 0.000354985
85 *1588:D *1507:B 0.000173941
86 *1588:RESET_B *1507:B 0.00048846
87 *26:8 *1476:B1 5.49544e-05
88 *33:22 *147:16 0
89 *33:22 *147:99 0.000599586
90 *43:10 *147:166 0.00186135
91 *46:24 *147:10 2.06112e-05
92 *58:20 *1507:B 0.000126169
93 *59:8 *147:114 7.2872e-05
94 *59:8 *147:118 0.000312729
95 *59:8 *147:145 0.000309718
96 *65:14 *147:145 0.000235197
97 *88:24 *147:145 0.000108068
98 *89:16 *147:28 0.000964138
99 *97:8 *147:16 8.15626e-05
100 *97:8 *147:22 0.000148182
101 *98:37 *147:166 0.000533619
102 *99:20 *147:166 0.000950379
103 *105:52 *147:10 2.11419e-05
104 *115:54 *1497:C 0.000251463
105 *115:54 *147:34 7.02611e-05
106 *127:24 *147:99 0.000591892
107 *130:38 *147:166 0.00016738
108 *134:40 *1484:A3 9.60875e-05
109 *137:24 *147:28 0.000352003
110 *138:8 *1484:A3 4.02038e-05
111 *142:22 *147:99 1.36662e-05
112 *145:16 *147:28 3.65627e-05
113 *146:10 *147:99 0.000570049
114 *146:10 *147:114 0.000162411
115 *146:10 *147:118 7.6588e-05
*RES
1 *1475:X *147:10 17.4868 
2 *147:10 *147:16 5.00483 
3 *147:16 *147:22 19.7143 
4 *147:22 *147:28 37.9643 
5 *147:28 *147:34 9.01786 
6 *147:34 *1486:A4 28.05 
7 *147:34 *1477:B 38.9786 
8 *147:28 *1497:C 15.9964 
9 *147:22 *1484:A3 25.0321 
10 *147:16 *1506:A1 14.3357 
11 *147:10 *147:99 19.356 
12 *147:99 *1476:B1 27.1036 
13 *147:99 *147:114 2.25 
14 *147:114 *147:118 4.60714 
15 *147:118 *1507:B 42.1214 
16 *147:118 *147:145 32.125 
17 *147:145 *147:149 24.6786 
18 *147:149 *1488:A 9.3 
19 *147:149 *147:166 47.7143 
20 *147:166 *1505:B2 22.3893 
21 *147:114 *1478:B 14.3357 
*END

*D_NET *148 0.0165381
*CONN
*I *1479:B I *D sky130_fd_sc_hd__and3_1
*I *1477:X O *D sky130_fd_sc_hd__or2_1
*CAP
1 *1479:B 0
2 *1477:X 0.00033027
3 *148:20 0.0014588
4 *148:10 0.00272257
5 *148:8 0.00159404
6 *148:10 *159:8 0.00418192
7 *148:20 *1492:A 0.000146853
8 *148:20 *1559:A 0.000205941
9 *1435:B *148:10 0.000943251
10 *68:10 *148:20 0.00104845
11 *79:8 *148:20 3.06878e-06
12 *81:14 *148:10 0.00309967
13 *84:34 *148:10 0.00066339
14 *84:53 *148:20 0
15 *117:10 *148:10 6.16958e-05
16 *118:12 *148:10 0
17 *142:22 *148:20 7.81998e-05
*RES
1 *1477:X *148:8 17.6214 
2 *148:8 *148:10 58.4107 
3 *148:10 *148:20 44.6964 
4 *148:20 *1479:B 9.3 
*END

*D_NET *149 0.0122649
*CONN
*I *1481:B I *D sky130_fd_sc_hd__xor2_1
*I *1479:C I *D sky130_fd_sc_hd__and3_1
*I *1485:A2 I *D sky130_fd_sc_hd__o211a_1
*I *1478:Y O *D sky130_fd_sc_hd__nand2_1
*CAP
1 *1481:B 0
2 *1479:C 0.000777717
3 *1485:A2 0.000717544
4 *1478:Y 0.000462423
5 *149:25 0.00142435
6 *149:6 0.0018266
7 *1479:C *1433:A 0.000262244
8 *1479:C *181:16 0
9 *1479:C *181:18 0
10 *1479:C *185:20 0
11 *1479:C *221:98 0.000333394
12 *1485:A2 *152:18 0.000370724
13 *149:6 *152:18 7.19302e-06
14 *149:25 *160:10 0.00133241
15 *149:25 *217:35 0.00194567
16 *1469:A *1479:C 0.000183298
17 *1469:B *1479:C 9.3927e-05
18 *1485:C1 *1485:A2 1.90036e-05
19 *1576:D *149:6 0.000221166
20 *1576:RESET_B *149:6 4.16044e-05
21 *34:18 *149:25 0.00044043
22 *70:10 *1479:C 7.8327e-05
23 *96:10 *1479:C 0.000567563
24 *96:10 *149:25 0.000222947
25 *107:24 *1479:C 0.000139482
26 *115:127 *1479:C 0.000124212
27 *131:18 *1479:C 0.000295493
28 *132:8 *1479:C 0.000377167
*RES
1 *1478:Y *149:6 14.7643 
2 *149:6 *1485:A2 20.1571 
3 *149:6 *149:25 34.0179 
4 *149:25 *1479:C 38.7107 
5 *149:25 *1481:B 9.3 
*END

*D_NET *150 0.00924907
*CONN
*I *1480:A I *D sky130_fd_sc_hd__clkbuf_1
*I *1479:X O *D sky130_fd_sc_hd__and3_1
*CAP
1 *1480:A 0.000236228
2 *1479:X 0.00273816
3 *150:8 0.00297439
4 *1480:A *1408:B 0.000160667
5 *1480:A *223:35 0.000336645
6 *86:16 *150:8 0.000267143
7 *102:26 *1480:A 0.000684147
8 *123:12 *1480:A 6.02223e-05
9 *132:8 *150:8 0.00179147
*RES
1 *1479:X *150:8 49.6571 
2 *150:8 *1480:A 22.7286 
*END

*D_NET *151 0.0145916
*CONN
*I *1482:B I *D sky130_fd_sc_hd__nor2_1
*I *1481:X O *D sky130_fd_sc_hd__xor2_1
*CAP
1 *1482:B 0.00068047
2 *1481:X 0.00168354
3 *151:22 0.00187687
4 *151:14 0.00287995
5 *1482:B *1411:C 5.20361e-05
6 *151:14 *1524:A1 5.52238e-05
7 *151:14 *188:105 0.000467849
8 *1400:A *1482:B 0.00135187
9 *1445:C1 *151:14 0.000817736
10 *1445:C1 *151:22 1.24368e-05
11 *1566:D *1482:B 0.000198706
12 *1577:RESET_B *1482:B 0.000377967
13 *42:10 *1482:B 3.81109e-05
14 *43:10 *1482:B 0.000657325
15 *43:10 *151:22 6.81125e-05
16 *44:26 *151:22 0.000178908
17 *76:20 *1482:B 1.90936e-05
18 *93:18 *151:14 8.00806e-05
19 *97:44 *151:14 7.83659e-05
20 *98:37 *1482:B 2.04626e-05
21 *98:37 *151:22 0.000940084
22 *106:55 *151:22 1.98839e-05
23 *130:22 *1482:B 4.57637e-05
24 *130:38 *1482:B 0.000139605
25 *130:38 *151:22 0.000108872
26 *141:28 *151:22 0.00094624
27 *147:166 *151:22 0.000796073
*RES
1 *1481:X *151:14 40.425 
2 *151:14 *151:22 33.9643 
3 *151:22 *1482:B 35.925 
*END

*D_NET *152 0.00609142
*CONN
*I *1485:A1 I *D sky130_fd_sc_hd__o211a_1
*I *1483:Y O *D sky130_fd_sc_hd__nand2_1
*CAP
1 *1485:A1 0
2 *1483:Y 0.00200934
3 *152:18 0.00200934
4 *152:18 *1483:A 1.24368e-05
5 *152:18 *207:122 0.000308528
6 *1485:A2 *152:18 0.000370724
7 *1485:C1 *152:18 5.52302e-05
8 *1576:RESET_B *152:18 0.000842004
9 *88:24 *152:18 3.63775e-05
10 *129:120 *152:18 0.00043775
11 *147:145 *152:18 2.50802e-06
12 *149:6 *152:18 7.19302e-06
*RES
1 *1483:Y *152:18 47.8893 
2 *152:18 *1485:A1 9.3 
*END

*D_NET *153 0.0118661
*CONN
*I *1485:B1 I *D sky130_fd_sc_hd__o211a_1
*I *1484:X O *D sky130_fd_sc_hd__a31o_1
*CAP
1 *1485:B1 0.000472815
2 *1484:X 0
3 *153:8 0.00278112
4 *153:4 0.0023083
5 *1485:B1 *181:103 0.00154557
6 *1485:B1 *181:107 5.7616e-05
7 *1485:B1 *191:86 0
8 *153:8 *207:30 7.84395e-05
9 *1436:A *153:8 0.000942476
10 *1484:A3 *153:8 0.00151451
11 *41:12 *153:8 8.25843e-06
12 *68:10 *1485:B1 0.000801271
13 *147:22 *153:8 0.00135572
*RES
1 *1484:X *153:4 9.3 
2 *153:4 *153:8 45.2857 
3 *153:8 *1485:B1 33.9607 
*END

*D_NET *154 0.011441
*CONN
*I *1490:B I *D sky130_fd_sc_hd__and3_1
*I *1486:X O *D sky130_fd_sc_hd__a41o_1
*CAP
1 *1490:B 0
2 *1486:X 0.00138778
3 *154:16 0.00149498
4 *154:12 0.00288276
5 *154:12 *1437:A1 0.000982608
6 *154:12 *209:56 0.0003198
7 *154:16 *1392:A 0.00106851
8 *154:16 *1490:C 0
9 *154:16 *1514:A1 0.000150625
10 *154:16 *1514:A2 1.08359e-05
11 *154:16 *170:45 3.34783e-05
12 *1437:A2 *154:12 0.000477526
13 *1462:A *154:16 0.000188957
14 *47:33 *154:16 8.02811e-05
15 *104:45 *154:16 0.00140361
16 *115:14 *154:16 9.64387e-05
17 *115:20 *154:16 0.000160125
18 *115:30 *154:16 0.00019674
19 *119:8 *154:12 0.000126639
20 *144:14 *154:16 0.000379288
*RES
1 *1486:X *154:12 42.7107 
2 *154:12 *154:16 44.0893 
3 *154:16 *1490:B 9.3 
*END

*D_NET *155 0.0228935
*CONN
*I *1488:B I *D sky130_fd_sc_hd__and2_2
*I *1504:B I *D sky130_fd_sc_hd__and2_2
*I *1497:D I *D sky130_fd_sc_hd__and4_1
*I *1487:X O *D sky130_fd_sc_hd__and4_1
*CAP
1 *1488:B 0.000847629
2 *1504:B 2.04425e-05
3 *1497:D 4.63839e-05
4 *1487:X 0
5 *155:57 0.00156505
6 *155:34 0.00129026
7 *155:22 0.00245326
8 *155:8 0.00317217
9 *155:4 0.0012658
10 *1488:B *1487:A 9.78246e-05
11 *1488:B *1487:B 4.49542e-05
12 *1488:B *1600:A 4.25569e-05
13 *1488:B *203:88 0.000149039
14 *1497:D *213:81 1.98839e-05
15 *1504:B *185:16 5.33005e-05
16 *1504:B *199:28 2.59355e-05
17 *155:8 *1413:D 7.47536e-05
18 *155:8 *1487:B 5.14817e-05
19 *155:22 *1460:A 6.05161e-06
20 *155:22 *167:24 0.000224912
21 *155:22 *181:24 1.40034e-05
22 *155:22 *202:14 0.000137983
23 *155:22 *222:36 0.00113687
24 *155:22 *224:18 0.000309515
25 *155:34 *163:12 0.000705586
26 *155:34 *210:36 0
27 *155:57 *179:108 5.1588e-05
28 *155:57 *185:8 0.00127593
29 *155:57 *185:16 0.000485537
30 *155:57 *188:113 0.00010326
31 *155:57 *212:16 6.97822e-05
32 *155:57 *224:18 0.000141592
33 *1460:B *155:22 4.96113e-05
34 *1497:C *1497:D 5.33005e-05
35 *1504:A *155:57 0
36 *1562:D *1497:D 1.15281e-05
37 *1565:RESET_B *155:57 5.32956e-05
38 *24:14 *155:34 0.00102704
39 *42:10 *1488:B 0.000149039
40 *47:105 *155:57 0
41 *84:18 *155:34 0.000304387
42 *86:16 *155:57 0.000742354
43 *86:18 *155:22 0.000326775
44 *86:18 *155:57 2.03025e-05
45 *87:10 *155:34 9.8045e-05
46 *94:30 *155:34 0.000145936
47 *106:55 *155:57 0.000562349
48 *115:54 *1497:D 0.000135028
49 *122:12 *155:22 0.000809578
50 *122:12 *155:34 0.00197633
51 *126:16 *155:22 0.000446145
52 *141:28 *155:57 9.91086e-05
*RES
1 *1487:X *155:4 9.3 
2 *155:4 *155:8 9.55357 
3 *155:8 *155:22 46.0179 
4 *155:22 *155:34 49.5357 
5 *155:34 *1497:D 15.1571 
6 *155:8 *155:57 46.7321 
7 *155:57 *1504:B 14.3357 
8 *155:4 *1488:B 29.4071 
*END

*D_NET *156 0.0245471
*CONN
*I *1493:B I *D sky130_fd_sc_hd__nand2_1
*I *1492:B I *D sky130_fd_sc_hd__or2_1
*I *1489:A I *D sky130_fd_sc_hd__inv_2
*I *1488:X O *D sky130_fd_sc_hd__and2_2
*CAP
1 *1493:B 0.000119571
2 *1492:B 0.000864574
3 *1489:A 6.24714e-05
4 *1488:X 6.48592e-05
5 *156:25 0.0024515
6 *156:10 0.0020214
7 *156:8 0.00195893
8 *156:6 0.00153221
9 *1489:A *1601:A 0.000354337
10 *1492:B *1492:A 0.0001867
11 *1492:B *181:18 2.37944e-05
12 *1492:B *187:14 0.000120966
13 *1492:B *191:84 6.90372e-06
14 *1492:B *212:38 1.03904e-05
15 *1492:B *216:26 5.74309e-05
16 *1492:B *216:41 9.04716e-05
17 *1493:B *181:18 0.000190311
18 *1493:B *216:26 0.000355269
19 *156:10 *1410:B 0.000168316
20 *156:10 *180:56 0.0012182
21 *156:10 *201:38 0.000121573
22 *156:10 *205:30 0.000373052
23 *156:10 *205:61 0.000724382
24 *156:10 *208:32 0.00202862
25 *156:25 *1507:C 0.000349706
26 *156:25 *1525:A 0.000225988
27 *156:25 *1545:A 0.000225982
28 *156:25 *168:14 0.00183521
29 *156:25 *179:6 4.58194e-05
30 *156:25 *179:75 0.00024845
31 *156:25 *212:63 5.23296e-05
32 *156:25 *216:41 2.59355e-05
33 *1448:C *156:25 0.000212719
34 *1462:B *156:10 0.000404905
35 *1463:A *156:25 0.000382821
36 *1507:B *1492:B 3.31158e-05
37 *1562:D *156:10 0.000683339
38 *1566:D *156:10 0.000113728
39 *1585:RESET_B *1489:A 0.000356261
40 *1587:D *156:25 3.17465e-05
41 *1587:RESET_B *156:25 8.84207e-05
42 *1588:RESET_B *1492:B 8.79458e-05
43 *66:8 *156:6 9.41642e-05
44 *66:8 *156:25 2.39298e-05
45 *66:10 *156:10 0.000116844
46 *76:20 *156:10 4.21517e-05
47 *120:30 *156:10 0.000289856
48 *126:16 *156:25 0.000154535
49 *136:24 *156:10 0.000950808
50 *143:10 *156:10 0.00112681
51 *143:41 *156:10 0.00024033
52 *147:149 *156:6 2.79201e-05
53 *147:149 *156:25 0.000969107
*RES
1 *1488:X *156:6 10.6571 
2 *156:6 *156:8 4.5 
3 *156:8 *156:10 62.9643 
4 *156:10 *1489:A 17.2107 
5 *156:6 *156:25 44.7857 
6 *156:25 *1492:B 25.9964 
7 *156:25 *1493:B 18.4786 
*END

*D_NET *157 0.00686268
*CONN
*I *1490:C I *D sky130_fd_sc_hd__and3_1
*I *1489:Y O *D sky130_fd_sc_hd__inv_2
*CAP
1 *1490:C 0.00136646
2 *1489:Y 0.000595126
3 *157:8 0.00196159
4 *1490:C *1392:A 0
5 *1490:C *1416:C1 0.000146618
6 *1490:C *1514:A1 0
7 *1490:C *1514:A2 4.94362e-05
8 *1490:C *170:45 6.63476e-05
9 *1490:C *171:12 0.000638419
10 *1490:C *193:26 3.93986e-05
11 *1490:C *206:26 8.90091e-05
12 *1490:C *206:40 0.000236175
13 *1420:B *1490:C 0.000111333
14 *1471:C *1490:C 2.88045e-05
15 *1560:RESET_B *1490:C 0
16 *1585:RESET_B *157:8 0.000864898
17 *40:12 *1490:C 0.000100855
18 *47:33 *1490:C 0.00047404
19 *47:39 *1490:C 9.41642e-05
20 *154:16 *1490:C 0
*RES
1 *1489:Y *157:8 22.1393 
2 *157:8 *1490:C 45.4071 
*END

*D_NET *158 0.0188624
*CONN
*I *1491:A I *D sky130_fd_sc_hd__buf_1
*I *1490:X O *D sky130_fd_sc_hd__and3_1
*CAP
1 *1491:A 0.000583211
2 *1490:X 0.00292205
3 *158:22 0.00350527
4 *1491:A *1395:A 0.000404734
5 *1491:A *179:132 8.44271e-06
6 *158:22 *167:24 1.462e-05
7 *158:22 *191:30 0
8 *158:22 *202:14 0.000340513
9 *158:22 *206:26 0.000385821
10 *1566:D *158:22 0.000275175
11 *1580:D *158:22 0.000159473
12 *30:6 *1491:A 0.00183602
13 *54:18 *158:22 0.0026637
14 *82:12 *158:22 0.000568154
15 *123:12 *1491:A 0.00020268
16 *130:38 *158:22 0.00328648
17 *132:8 *1491:A 0.000885403
18 *144:14 *158:22 0.000820685
*RES
1 *1490:X *158:22 48.0147 
2 *158:22 *1491:A 35.5411 
*END

*D_NET *159 0.0110755
*CONN
*I *1494:B I *D sky130_fd_sc_hd__and3_1
*I *1492:X O *D sky130_fd_sc_hd__or2_1
*CAP
1 *1494:B 0.0010196
2 *1492:X 0
3 *159:8 0.00301819
4 *159:6 0.00199859
5 *1494:B *212:71 0
6 *1494:B *227:97 0
7 *159:8 *169:10 0
8 *81:14 *159:8 3.41848e-05
9 *89:12 *1494:B 0.000823002
10 *148:10 *159:8 0.00418192
*RES
1 *1492:X *159:6 13.8 
2 *159:6 *159:8 53.5536 
3 *159:8 *1494:B 35.8714 
*END

*D_NET *160 0.0134756
*CONN
*I *1498:A2 I *D sky130_fd_sc_hd__a211oi_2
*I *1494:C I *D sky130_fd_sc_hd__and3_1
*I *1493:Y O *D sky130_fd_sc_hd__nand2_1
*CAP
1 *1498:A2 0
2 *1494:C 0.000539065
3 *1493:Y 0.000217991
4 *160:10 0.00176357
5 *160:8 0.0014425
6 *1494:C *1511:C 0.00018372
7 *1494:C *207:30 0.000249588
8 *1494:C *212:71 0.000138323
9 *1494:C *214:10 0.000263046
10 *160:8 *212:30 0.00029744
11 *160:8 *212:38 1.24368e-05
12 *160:10 *1415:B 0.000137187
13 *160:10 *168:33 0.00230597
14 *160:10 *212:63 0
15 *160:10 *214:10 0.000115436
16 *160:10 *217:35 9.25867e-05
17 *34:18 *160:10 0.000296762
18 *34:30 *1494:C 0.000719855
19 *34:30 *160:10 0.00213342
20 *74:22 *1494:C 0.000160588
21 *74:22 *160:10 0.000399731
22 *84:18 *1494:C 0.000296554
23 *96:10 *160:10 0.000331527
24 *108:30 *160:10 4.58835e-05
25 *149:25 *160:10 0.00133241
*RES
1 *1493:Y *160:8 16.8 
2 *160:8 *160:10 47.7857 
3 *160:10 *1494:C 31.9607 
4 *160:10 *1498:A2 13.8 
*END

*D_NET *161 0.0235457
*CONN
*I *1495:A I *D sky130_fd_sc_hd__clkbuf_1
*I *1494:X O *D sky130_fd_sc_hd__and3_1
*CAP
1 *1495:A 0
2 *1494:X 0.0088574
3 *161:24 0.0088574
4 *161:24 *1509:A 0.000167233
5 *161:24 *1509:B 0.00023988
6 *161:24 *1511:B 0.000101601
7 *161:24 *1511:C 1.02504e-05
8 *161:24 *181:32 0.000195377
9 *161:24 *191:30 0.00366627
10 *161:24 *211:85 0
11 *161:24 *212:71 1.43288e-05
12 seg[4] *161:24 8.25872e-08
13 *1427:A *161:24 0.000225914
14 *44:26 *161:24 0
15 *72:10 *161:24 0.000149646
16 *74:22 *161:24 0.000990562
17 *99:10 *161:24 2.27058e-05
18 *129:66 *161:24 0
19 *136:24 *161:24 4.70487e-05
*RES
1 *1494:X *161:24 48.8483 
2 *161:24 *1495:A 13.8 
*END

*D_NET *162 0.0246667
*CONN
*I *1498:A1 I *D sky130_fd_sc_hd__a211oi_2
*I *1496:Y O *D sky130_fd_sc_hd__inv_2
*CAP
1 *1498:A1 0.000100233
2 *1496:Y 0.00611023
3 *162:24 0.00621046
4 *1498:A1 *183:16 0.000116929
5 *162:24 *1454:A 0.000182348
6 *162:24 *1503:A 0.000126169
7 *162:24 *1517:D1 0.00013415
8 *162:24 *185:16 0.000172688
9 *162:24 *187:22 0.000175197
10 *162:24 *188:76 0.000302042
11 *162:24 *201:14 0.000121549
12 *162:24 *207:30 0.000235087
13 *162:24 *215:14 0.000108934
14 *162:24 *217:29 0.000287043
15 *162:24 *217:35 0.000135432
16 *1414:A2 *162:24 0.000175445
17 *1427:A *162:24 0.00119783
18 *1448:B *162:24 0.000195979
19 *1498:C1 *162:24 1.94945e-05
20 *1581:D *162:24 0.000140349
21 *1589:D *1498:A1 1.21258e-05
22 *11:23 *162:24 0.00390865
23 *33:22 *162:24 0.000210962
24 *34:30 *162:24 0.000269272
25 *58:20 *162:24 0.00301017
26 *74:22 *162:24 0.000245553
27 *79:20 *1498:A1 0.000179104
28 *88:34 *162:24 0.000119924
29 *97:44 *162:24 0.000442764
30 *107:24 *162:24 0
31 *123:12 *162:24 2.06112e-05
*RES
1 *1496:Y *162:24 46.7434 
2 *162:24 *1498:A1 16.5321 
*END

*D_NET *163 0.0167871
*CONN
*I *1499:B I *D sky130_fd_sc_hd__or2_1
*I *1500:B I *D sky130_fd_sc_hd__nand2_2
*I *1498:B1 I *D sky130_fd_sc_hd__a211oi_2
*I *1497:X O *D sky130_fd_sc_hd__and4_1
*CAP
1 *1499:B 0.00017088
2 *1500:B 8.36145e-05
3 *1498:B1 0.000583613
4 *1497:X 0.000859047
5 *163:56 0.00167646
6 *163:16 0.00165972
7 *163:12 0.00335712
8 *1498:B1 *183:64 0
9 *1498:B1 *188:20 1.00399e-05
10 *1498:B1 *213:81 0.000127977
11 *1498:B1 *215:14 0.000146934
12 *1499:B *1499:A 7.87861e-05
13 *1499:B *1563:CLK 0.000638293
14 *1499:B *203:18 0.000219366
15 *1500:B *188:20 2.55698e-05
16 *1500:B *213:81 0.000112731
17 *163:16 *1591:CLK 1.21258e-05
18 *163:16 *183:96 0.000176714
19 *163:16 *183:103 0.000165908
20 *163:16 *188:20 0.000349458
21 *163:56 *1451:A 0.000710862
22 *163:56 *1591:CLK 0.000157916
23 *163:56 *205:61 0.000351112
24 *1459:C *163:12 0.000607881
25 *1497:C *163:12 0.000188586
26 *1498:C1 *1498:B1 4.6025e-06
27 *1591:D *163:16 3.06878e-06
28 *22:18 *1498:B1 0.000135028
29 *22:18 *163:16 3.21345e-05
30 *24:14 *163:12 3.34295e-05
31 *24:14 *163:56 5.33005e-05
32 *33:22 *1498:B1 9.96487e-05
33 *40:12 *1499:B 0.000262686
34 *48:12 *1498:B1 1.07851e-05
35 *94:30 *163:12 0
36 *96:33 *163:56 0.00097644
37 *102:26 *163:56 0.00018798
38 *106:14 *163:56 0.000534538
39 *115:54 *163:12 0.000186669
40 *119:10 *163:56 0.000259258
41 *128:20 *163:12 0.000118823
42 *142:28 *163:56 0.000712391
43 *145:16 *163:12 0
44 *147:28 *163:12 0
45 *155:34 *163:12 0.000705586
*RES
1 *1497:X *163:12 39.925 
2 *163:12 *163:16 16.9464 
3 *163:16 *1498:B1 31.4429 
4 *163:16 *1500:B 15.4429 
5 *163:12 *163:56 47.3393 
6 *163:56 *1499:B 20.0857 
*END

*D_NET *164 0.00435197
*CONN
*I *1501:B I *D sky130_fd_sc_hd__and3_1
*I *1499:X O *D sky130_fd_sc_hd__or2_1
*CAP
1 *1501:B 0
2 *1499:X 0.000588484
3 *164:12 0.000588484
4 *164:12 *1521:A 0.000243529
5 *164:12 *191:30 0.000120387
6 *164:12 *194:22 0.000154441
7 *164:12 *203:18 2.59355e-05
8 *45:28 *164:12 0.00115274
9 *95:55 *164:12 0.000961847
10 *115:20 *164:12 6.89839e-05
11 *115:30 *164:12 0.000447142
*RES
1 *1499:X *164:12 40.8179 
2 *164:12 *1501:B 9.3 
*END

*D_NET *165 0.0242932
*CONN
*I *1505:A2 I *D sky130_fd_sc_hd__a221oi_2
*I *1501:C I *D sky130_fd_sc_hd__and3_1
*I *1500:Y O *D sky130_fd_sc_hd__nand2_2
*CAP
1 *1505:A2 0.000109623
2 *1501:C 0.000357708
3 *1500:Y 0.00162333
4 *165:37 0.00173525
5 *165:35 0.00190098
6 *165:16 0.00225639
7 *1501:C *184:84 2.63605e-05
8 *1505:A2 *168:52 3.97677e-05
9 *1505:A2 *201:76 0.000206204
10 *165:16 *1404:A2 7.09928e-05
11 *165:16 *1451:B 2.55889e-05
12 *165:16 *187:61 0.00038224
13 *165:16 *214:37 0.000151833
14 *165:35 *184:108 9.58181e-05
15 *165:37 *1421:B 0.000771396
16 *165:37 *1519:A1 0.000100878
17 *165:37 *1530:A 0.000928846
18 *165:37 *1572:CLK 9.39854e-05
19 *165:37 *181:32 0
20 *165:37 *184:112 9.57064e-05
21 *165:37 *191:30 0.000570449
22 *165:37 *200:100 0.000588773
23 *1404:B1 *165:16 0.00156275
24 *1432:A *165:35 4.49293e-05
25 *1432:A *165:37 0.000193983
26 *1440:B *165:37 0.00010694
27 *1449:A *165:16 9.83442e-05
28 *1462:B *165:16 7.69776e-06
29 *1501:A *1501:C 0.000671476
30 *1501:A *165:35 0.000733359
31 *1505:B2 *1505:A2 0.000309279
32 *1566:RESET_B *165:16 0.000824847
33 *1573:RESET_B *165:16 0.000146746
34 *1577:D *165:37 0.000333229
35 *30:10 *165:37 0.00331266
36 *50:18 *1501:C 0.000532535
37 *50:18 *165:35 0.000770462
38 *91:8 *165:16 5.49489e-05
39 *94:30 *165:16 1.84301e-05
40 *95:32 *165:16 0.00231274
41 *120:30 *165:37 0.000110199
42 *127:24 *165:16 9.14771e-06
43 *130:22 *165:16 0
44 *135:14 *165:16 6.43714e-06
*RES
1 *1500:Y *165:16 48.0178 
2 *165:16 *1501:C 23.0054 
3 *165:16 *165:35 19.9375 
4 *165:35 *165:37 55.6786 
5 *165:37 *1505:A2 17.6214 
*END

*D_NET *166 0.019531
*CONN
*I *1502:A I *D sky130_fd_sc_hd__buf_1
*I *1501:X O *D sky130_fd_sc_hd__and3_1
*CAP
1 *1502:A 0.00295716
2 *1501:X 0.00181058
3 *166:26 0.00476774
4 *1502:A *1395:B 0.000158069
5 *1502:A *1464:A1 0.000114352
6 *1502:A *167:24 0.00091211
7 *1502:A *182:18 0.00185809
8 *1502:A *182:48 0.00177925
9 *1502:A *185:8 0.000176806
10 *1502:A *222:36 0.000158398
11 *1502:A *223:35 0
12 *1502:A *224:12 0.00020996
13 *1502:A *224:18 0.000209037
14 *166:26 *1392:A 0.000349705
15 *166:26 *1512:A 0.000476365
16 *166:26 *1594:A 4.37712e-06
17 *166:26 *1595:A 2.88322e-05
18 *1462:B *166:26 0
19 *1566:RESET_B *166:26 6.15987e-05
20 *1573:RESET_B *166:26 9.54798e-06
21 *1589:RESET_B *166:26 0.000339399
22 *86:18 *1502:A 0.000174605
23 *87:10 *1502:A 0.000234866
24 *87:26 *1502:A 0.00154425
25 *87:66 *1502:A 0.000269747
26 *94:30 *166:26 6.79576e-05
27 *104:45 *166:26 0.000101771
28 *115:30 *166:26 0.000101771
29 *120:42 *166:26 0.000249046
30 *128:20 *1502:A 0
31 *130:38 *1502:A 0
32 *135:14 *1502:A 0.000405634
*RES
1 *1501:X *166:26 47.283 
2 *166:26 *1502:A 33.1851 
*END

*D_NET *167 0.020832
*CONN
*I *1505:A1 I *D sky130_fd_sc_hd__a221oi_2
*I *1503:Y O *D sky130_fd_sc_hd__inv_2
*CAP
1 *1505:A1 0.000232897
2 *1503:Y 0.00620316
3 *167:24 0.00643606
4 *1505:A1 *1540:A 0
5 *1505:A1 *201:72 0.00036518
6 *1505:A1 *202:66 0
7 *167:24 *187:48 1.80769e-05
8 *167:24 *207:20 0.0001828
9 *167:24 *212:16 0.000254165
10 *167:24 *222:30 0.00033955
11 *167:24 *222:36 0.000121549
12 *1417:A1 *167:24 2.61971e-05
13 *1502:A *167:24 0.00091211
14 *1505:C1 *167:24 0
15 *47:105 *167:24 0.000487047
16 *86:16 *167:24 0.000180508
17 *86:18 *167:24 0.000183599
18 *87:26 *167:24 0.00153803
19 *93:51 *167:24 0.000100914
20 *105:6 *167:24 3.97677e-05
21 *105:12 *167:24 6.05161e-06
22 *122:12 *167:24 0.000125685
23 *122:32 *167:24 0.000522565
24 *128:20 *167:24 0
25 *130:38 *167:24 0.00185793
26 *133:22 *167:24 0
27 *142:22 *167:24 0.000278882
28 *146:10 *167:24 0.000179775
29 *155:22 *167:24 0.000224912
30 *158:22 *167:24 1.462e-05
*RES
1 *1503:Y *167:24 47.1163 
2 *167:24 *1505:A1 18.6304 
*END

*D_NET *168 0.0271885
*CONN
*I *1505:B1 I *D sky130_fd_sc_hd__a221oi_2
*I *1506:A2 I *D sky130_fd_sc_hd__a21oi_1
*I *1507:C I *D sky130_fd_sc_hd__and3_2
*I *1504:X O *D sky130_fd_sc_hd__and2_2
*CAP
1 *1505:B1 0
2 *1506:A2 0
3 *1507:C 0.000317291
4 *1504:X 0.000378754
5 *168:52 0.00227992
6 *168:33 0.000851212
7 *168:14 0.00282609
8 *168:8 0.00431627
9 *1507:C *1492:A 5.87643e-05
10 *1507:C *212:63 1.93738e-05
11 *1507:C *216:41 1.21258e-05
12 *168:8 *222:10 0
13 *168:14 *179:75 0.00045502
14 *168:14 *179:100 0.00090417
15 *168:14 *222:10 0
16 *168:33 *169:8 8.55926e-05
17 *168:33 *216:41 0.000265031
18 *168:33 *216:54 0.000135028
19 *168:52 *1474:A 0.00198551
20 *168:52 *195:16 0.000431589
21 *168:52 *201:76 6.8377e-06
22 *1413:C *168:14 0.000169705
23 *1448:B *168:14 0.000302793
24 *1505:A2 *168:52 3.97677e-05
25 *1505:B2 *168:52 0.00055116
26 *1519:B1 *168:52 0.00109336
27 *1565:RESET_B *168:8 0.000316746
28 *1565:RESET_B *168:14 0.000489015
29 *27:14 *168:14 0.000842073
30 *34:18 *168:33 0.000257791
31 *74:22 *168:33 0.000175428
32 *96:10 *168:33 0.00230768
33 *129:97 *168:52 1.15615e-06
34 *133:22 *168:8 0.000152693
35 *133:22 *168:14 0.000313949
36 *140:12 *168:14 5.72318e-05
37 *147:149 *168:14 0.000298483
38 *156:25 *1507:C 0.000349706
39 *156:25 *168:14 0.00183521
40 *160:10 *168:33 0.00230597
*RES
1 *1504:X *168:8 21.8179 
2 *168:8 *168:14 48.3214 
3 *168:14 *1507:C 15.1036 
4 *168:14 *168:33 42.6964 
5 *168:33 *1506:A2 9.3 
6 *168:8 *168:52 42.9107 
7 *168:52 *1505:B1 9.3 
*END

*D_NET *169 0.00974833
*CONN
*I *1508:B I *D sky130_fd_sc_hd__nor3_1
*I *1506:Y O *D sky130_fd_sc_hd__a21oi_1
*CAP
1 *1508:B 0
2 *1506:Y 0.00136329
3 *169:10 0.00257999
4 *169:8 0.00394327
5 *169:8 *216:41 7.27071e-05
6 *81:12 *169:10 0
7 *81:14 *169:10 0
8 *84:40 *169:10 0.00022604
9 *84:53 *169:10 0.00139617
10 *88:46 *169:10 3.6337e-05
11 *130:38 *169:10 4.49358e-05
12 *159:8 *169:10 0
13 *168:33 *169:8 8.55926e-05
*RES
1 *1506:Y *169:8 28.7107 
2 *169:8 *169:10 54.7679 
3 *169:10 *1508:B 13.8 
*END

*D_NET *170 0.0327369
*CONN
*I *1508:C I *D sky130_fd_sc_hd__nor3_1
*I *1513:B1 I *D sky130_fd_sc_hd__a21o_1
*I *1509:B I *D sky130_fd_sc_hd__or2_1
*I *1510:B I *D sky130_fd_sc_hd__nand2_1
*I *1507:X O *D sky130_fd_sc_hd__and3_2
*CAP
1 *1508:C 0.00143511
2 *1513:B1 0.000203739
3 *1509:B 0.000633434
4 *1510:B 0.000548554
5 *1507:X 4.36033e-05
6 *170:47 0.000986839
7 *170:45 0.00242908
8 *170:37 0.00335966
9 *170:14 0.00222296
10 *170:12 0.00135802
11 *170:8 0.00224258
12 *1508:C *187:14 0.000198103
13 *1508:C *212:38 0
14 *1508:C *216:26 0
15 *1509:B *1509:A 0.00115602
16 *1510:B *1398:B2 0.000266085
17 *1510:B *181:107 0.000154762
18 *1510:B *191:86 0
19 *1510:B *227:97 0
20 *1513:B1 *1514:C1 0.000783317
21 *170:8 *1492:A 5.33005e-05
22 *170:12 *1533:A 0.000167304
23 *170:12 *179:28 0.000483247
24 *170:12 *187:14 0.000146991
25 *170:12 *189:53 0.000190379
26 *170:14 *1398:B2 0.000548849
27 *170:14 *189:53 0.000742132
28 *170:37 *214:10 0.00019783
29 *170:45 *1392:A 0.000125724
30 *170:45 *1441:A 0.000314416
31 *170:45 *193:26 0.000875145
32 *170:47 *1392:B 0.00014183
33 *170:47 *1514:C1 0.000355759
34 *1490:C *170:45 6.63476e-05
35 *1501:A *1509:B 1.09569e-05
36 *1508:A *1508:C 0.000580273
37 *1570:RESET_B *1510:B 6.06756e-05
38 *1588:RESET_B *170:12 0.000392739
39 *20:14 *1509:B 0
40 *29:8 *1510:B 0.00029629
41 *29:8 *170:14 0.000401809
42 *34:30 *170:37 2.26018e-06
43 *37:10 *1509:B 0
44 *39:8 *1510:B 0.000310292
45 *46:16 *170:45 3.97657e-05
46 *58:20 *1508:C 0.000338128
47 *58:20 *170:12 0.000260154
48 *58:20 *170:14 0.000432227
49 *74:22 *170:12 0.000311721
50 *79:12 *170:12 0.000531468
51 *79:12 *170:14 0.0012869
52 *93:55 *1513:B1 0.000772905
53 *93:55 *170:47 0.000611097
54 *122:8 *170:45 0.000410699
55 *131:18 *1508:C 0.00182936
56 *131:18 *170:12 0.00115274
57 *154:16 *170:45 3.34783e-05
58 *161:24 *1509:B 0.00023988
*RES
1 *1507:X *170:8 14.3357 
2 *170:8 *170:12 28.2411 
3 *170:12 *170:14 25.9732 
4 *170:14 *1510:B 35.1571 
5 *170:14 *170:37 17.375 
6 *170:37 *170:45 48.2321 
7 *170:45 *170:47 5.875 
8 *170:47 *1509:B 33.6036 
9 *170:47 *1513:B1 18.0857 
10 *170:8 *1508:C 48.8179 
*END

*D_NET *171 0.0117657
*CONN
*I *1511:B I *D sky130_fd_sc_hd__and3_1
*I *1509:X O *D sky130_fd_sc_hd__or2_1
*CAP
1 *1511:B 0.00089168
2 *1509:X 0.000863849
3 *171:12 0.00175553
4 *1511:B *173:8 0.000751117
5 *1511:B *206:40 0.000142856
6 *171:12 *1566:CLK 8.61222e-05
7 *171:12 *206:40 0.000273857
8 *1490:C *171:12 0.000638419
9 *1583:RESET_B *171:12 0.000638448
10 *40:12 *171:12 0.000284625
11 *84:18 *1511:B 0.00177705
12 *106:14 *1511:B 0.00120342
13 *145:8 *1511:B 0.00235713
14 *161:24 *1511:B 0.000101601
*RES
1 *1509:X *171:12 41.1036 
2 *171:12 *1511:B 47.2464 
*END

*D_NET *172 0.00358963
*CONN
*I *1511:C I *D sky130_fd_sc_hd__and3_1
*I *1510:Y O *D sky130_fd_sc_hd__nand2_1
*CAP
1 *1511:C 0.00107481
2 *1510:Y 0.00107481
3 *1511:C *1510:A 0.000749318
4 *1511:C *212:71 0.000260377
5 *1477:B *1511:C 1.32552e-05
6 *1494:C *1511:C 0.00018372
7 *1570:RESET_B *1511:C 0
8 *84:18 *1511:C 0.000119381
9 *105:52 *1511:C 0.000103714
10 *161:24 *1511:C 1.02504e-05
*RES
1 *1510:Y *1511:C 43.7071 
*END

*D_NET *173 0.0102841
*CONN
*I *1512:A I *D sky130_fd_sc_hd__clkbuf_1
*I *1511:X O *D sky130_fd_sc_hd__and3_1
*CAP
1 *1512:A 0.000690833
2 *1511:X 0.00168162
3 *173:8 0.00237245
4 *1512:A *218:20 0.00105317
5 *1511:B *173:8 0.000751117
6 *1589:RESET_B *1512:A 0.00110465
7 *79:20 *1512:A 0.000153182
8 *119:10 *1512:A 0.00105484
9 *145:8 *173:8 0.000945834
10 *166:26 *1512:A 0.000476365
*RES
1 *1511:X *173:8 36.5143 
2 *173:8 *1512:A 38.3893 
*END

*D_NET *174 0.00357805
*CONN
*I *1514:C1 I *D sky130_fd_sc_hd__o211a_1
*I *1513:X O *D sky130_fd_sc_hd__a21o_1
*CAP
1 *1514:C1 0.00103877
2 *1513:X 0.00103877
3 *1514:C1 *184:24 0.00010773
4 *1462:A *1514:C1 4.46186e-06
5 *1513:B1 *1514:C1 0.000783317
6 *84:10 *1514:C1 0.000175103
7 *115:30 *1514:C1 7.41317e-05
8 *170:47 *1514:C1 0.000355759
*RES
1 *1513:X *1514:C1 44.2429 
*END

*D_NET *175 0.0303259
*CONN
*I *1519:A2 I *D sky130_fd_sc_hd__a21oi_1
*I *1524:A2 I *D sky130_fd_sc_hd__a21boi_2
*I *1518:B I *D sky130_fd_sc_hd__nor2_1
*I *1516:C I *D sky130_fd_sc_hd__and3b_1
*I *1515:Y O *D sky130_fd_sc_hd__nor2_2
*CAP
1 *1519:A2 0
2 *1524:A2 0
3 *1518:B 5.71886e-05
4 *1516:C 0.000380956
5 *1515:Y 0.00228344
6 *175:89 0.00259274
7 *175:81 0.00303433
8 *175:70 0.0017142
9 *175:62 0.0029096
10 *175:43 0.00143999
11 *175:18 0.00329339
12 *1516:C *1517:C1 1.01912e-05
13 *1516:C *207:20 0
14 *1518:B *181:24 9.431e-05
15 *175:18 *1401:A1 0
16 *175:18 *1515:A 0.00016328
17 *175:18 *180:29 0.000156775
18 *175:18 *183:96 5.70105e-05
19 *175:18 *187:48 0
20 *175:18 *188:20 0.000265662
21 *175:18 *188:158 0.000326126
22 *175:18 *215:12 1.59373e-05
23 *175:18 *219:49 0.000144887
24 *175:43 *179:18 4.53834e-05
25 *175:43 *219:49 0.000113219
26 *175:62 *1481:A 0.000380682
27 *175:62 *1483:B 0.000230729
28 *175:62 *179:18 0.000508771
29 *175:62 *208:94 0.000254058
30 *175:62 *213:33 0.00109873
31 *175:62 *219:49 0
32 *175:62 *222:30 5.44167e-05
33 *175:62 *225:75 4.58194e-05
34 *175:70 *191:70 0.000307132
35 *175:70 *217:35 9.58181e-05
36 *175:70 *221:98 0.00022357
37 *175:70 *225:75 0.00042824
38 *175:70 *226:20 0.000136676
39 *175:81 *191:70 0.000280101
40 *175:81 *213:33 0.000826563
41 *175:89 *1519:A1 0.00014662
42 *175:89 *1575:CLK 8.6229e-06
43 *175:89 *186:21 0.000145034
44 *175:89 *202:74 0.000990492
45 *1445:C1 *175:70 1.02936e-05
46 *1459:B *175:18 0
47 *1580:D *175:89 4.27078e-05
48 *1580:RESET_B *175:89 0.000958412
49 *11:23 *1516:C 0.000130555
50 *70:8 *175:70 0.000139485
51 *81:12 *175:70 0.000347347
52 *83:12 *175:18 0.000869243
53 *88:24 *1518:B 5.65955e-05
54 *91:10 *175:70 0.000131985
55 *92:20 *175:18 0.0001696
56 *93:51 *175:18 0.000571898
57 *101:12 *175:81 0
58 *108:30 *1516:C 0.000600238
59 *109:12 *1518:B 6.09682e-05
60 *115:106 *175:70 0.000176425
61 *127:24 *175:18 7.93797e-05
62 *128:20 *175:70 5.49489e-05
63 *137:24 *175:18 0.000431833
64 *137:24 *175:43 0.000233307
*RES
1 *1515:Y *175:18 44.0486 
2 *175:18 *1516:C 21.9167 
3 *175:18 *175:43 8.80879 
4 *175:43 *1518:B 15.5679 
5 *175:43 *175:62 27.4821 
6 *175:62 *175:70 41.8393 
7 *175:70 *1524:A2 9.3 
8 *175:62 *175:81 20.0536 
9 *175:81 *175:89 44.3393 
10 *175:89 *1519:A2 9.3 
*END

*D_NET *176 0.0149264
*CONN
*I *1522:C I *D sky130_fd_sc_hd__or3_1
*I *1517:C1 I *D sky130_fd_sc_hd__a2111o_1
*I *1516:X O *D sky130_fd_sc_hd__and3b_1
*CAP
1 *1522:C 0.000948774
2 *1517:C1 0.00137751
3 *1516:X 0
4 *176:41 0.00255015
5 *176:4 0.00297888
6 *1517:C1 *1517:A2 8.08521e-05
7 *1517:C1 *1517:D1 0.000721469
8 *1517:C1 *1569:CLK 0
9 *1517:C1 *187:48 0.000182324
10 *1517:C1 *207:20 0.000234759
11 *1522:C *190:69 0.000328679
12 *1522:C *223:35 0.000446368
13 *1522:C *225:71 0
14 *1522:C *227:26 4.29498e-05
15 *176:41 *179:18 0.000133477
16 *176:41 *194:14 0.000609254
17 *176:41 *213:33 0.000265385
18 *176:41 *225:14 0.00026353
19 *1417:A1 *1517:C1 2.28007e-05
20 *1476:B1 *176:41 0.000433712
21 *1516:C *1517:C1 1.01912e-05
22 *1571:RESET_B *1517:C1 9.48865e-05
23 *1587:RESET_B *1522:C 0.000168878
24 *23:16 *1517:C1 0.000356524
25 *31:12 *1522:C 0.000452235
26 *44:26 *1522:C 0.000147914
27 *85:31 *1522:C 0.000354275
28 *88:34 *1517:C1 0.00080485
29 *97:22 *1517:C1 0.000512478
30 *100:10 *1522:C 0.000101545
31 *102:26 *1522:C 3.06589e-05
32 *123:12 *1522:C 8.25512e-05
33 *129:120 *1517:C1 5.05056e-05
34 *139:33 *1522:C 0.000137983
*RES
1 *1516:X *176:4 9.3 
2 *176:4 *1517:C1 48.7821 
3 *176:4 *176:41 35.6964 
4 *176:41 *1522:C 40.175 
*END

*D_NET *177 0.00439278
*CONN
*I *1521:A I *D sky130_fd_sc_hd__buf_1
*I *1520:X O *D sky130_fd_sc_hd__or3_1
*CAP
1 *1521:A 0.00114209
2 *1520:X 0.00114209
3 *1521:A *193:26 0.000304394
4 *1521:A *194:22 0.000619258
5 *1521:A *205:14 2.87555e-06
6 *46:12 *1521:A 0.000518228
7 *47:20 *1521:A 8.86413e-05
8 *47:33 *1521:A 0.000137515
9 *115:30 *1521:A 0.000194156
10 *164:12 *1521:A 0.000243529
*RES
1 *1520:X *1521:A 48.0643 
*END

*D_NET *178 0.00779523
*CONN
*I *1523:A I *D sky130_fd_sc_hd__clkbuf_1
*I *1522:X O *D sky130_fd_sc_hd__or3_1
*CAP
1 *1523:A 0.000744284
2 *1522:X 0.00124733
3 *178:14 0.00199161
4 *1523:A *206:8 2.89114e-05
5 *178:14 *1395:A 0
6 *178:14 *179:140 0.000463838
7 *178:14 *190:69 0
8 *178:14 *211:28 0.00187706
9 *1470:A *178:14 1.4279e-05
10 *1575:D *1523:A 0.000271554
11 *99:10 *1523:A 0.000734378
12 *129:97 *1523:A 1.28921e-05
13 *139:14 *178:14 4.48647e-05
14 *139:33 *178:14 0.000334446
15 *143:10 *178:14 2.97829e-05
*RES
1 *1522:X *178:14 46.175 
2 *178:14 *1523:A 34.5679 
*END

*D_NET *179 0.0407871
*CONN
*I *1528:A I *D sky130_fd_sc_hd__inv_2
*I *1529:A I *D sky130_fd_sc_hd__inv_2
*I *1535:A I *D sky130_fd_sc_hd__inv_2
*I *1530:A I *D sky130_fd_sc_hd__inv_2
*I *1532:A I *D sky130_fd_sc_hd__inv_2
*I *1534:A I *D sky130_fd_sc_hd__inv_2
*I *1531:A I *D sky130_fd_sc_hd__inv_2
*I *1527:A I *D sky130_fd_sc_hd__inv_2
*I *1526:A I *D sky130_fd_sc_hd__inv_2
*I *1533:A I *D sky130_fd_sc_hd__inv_2
*I *1525:X O *D sky130_fd_sc_hd__buf_4
*CAP
1 *1528:A 0
2 *1529:A 0
3 *1535:A 0.000217366
4 *1530:A 0.00028707
5 *1532:A 0
6 *1534:A 0
7 *1531:A 0
8 *1527:A 0
9 *1526:A 0.000206737
10 *1533:A 0.000654981
11 *1525:X 3.61152e-05
12 *179:148 0.000892334
13 *179:140 0.00112054
14 *179:132 0.00132269
15 *179:108 0.00121741
16 *179:100 0.00237195
17 *179:75 0.00121541
18 *179:28 0.00277886
19 *179:18 0.00249635
20 *179:6 0.00126623
21 *1526:A *1569:CLK 1.10909e-05
22 *1530:A *189:28 5.49544e-05
23 *1530:A *200:100 0.000766014
24 *1533:A *1398:B2 0.00022188
25 *1533:A *1592:A 0.000465961
26 *1533:A *189:42 0.000271702
27 *1533:A *189:53 0.00158119
28 *1533:A *227:97 0.000911111
29 *179:18 *213:33 0.000790108
30 *179:18 *219:49 0
31 *179:28 *185:41 0.00048808
32 *179:28 *189:42 9.64513e-05
33 *179:28 *190:67 9.25014e-06
34 *179:28 *213:33 0.000125243
35 *179:75 *1596:A 4.34648e-05
36 *179:100 *222:10 0
37 *179:108 *213:22 2.70341e-05
38 *179:108 *216:22 0.00236214
39 *179:132 *1395:A 8.6229e-06
40 *179:132 *212:16 0.000320178
41 *179:140 *180:67 0.000182484
42 *179:148 *186:10 0.000589726
43 *179:148 *187:132 9.90367e-05
44 *179:148 *187:138 0.000101359
45 *1413:C *179:75 0.00024175
46 *1432:A *1530:A 5.33005e-05
47 *1440:B *1530:A 8.33559e-05
48 *1461:B *179:140 0.000321372
49 *1469:B *179:75 1.02504e-05
50 *1469:B *179:100 0.000130077
51 *1491:A *179:132 8.44271e-06
52 *1504:A *179:75 5.32447e-05
53 *1504:A *179:108 0.000748507
54 *1565:RESET_B *179:100 9.25014e-06
55 *1565:RESET_B *179:108 0.000546215
56 *1569:D *1526:A 0.000104029
57 *1569:RESET_B *1526:A 0.000484487
58 *1580:RESET_B *179:100 0.0002219
59 *1580:RESET_B *179:132 0.00103488
60 *1584:D *179:108 0.000263446
61 *1588:RESET_B *179:28 0.00030241
62 *30:6 *179:132 0.000401368
63 *46:24 *1526:A 0.000229444
64 *50:10 *179:148 2.58997e-05
65 *51:10 *179:148 0.000734039
66 *54:18 *179:75 0.000217427
67 *58:20 *1533:A 0.000414427
68 *92:20 *179:18 0.000365155
69 *92:20 *179:28 3.75311e-05
70 *103:33 *179:75 0.000296081
71 *107:24 *179:108 0.000457259
72 *123:12 *179:132 4.30917e-05
73 *124:14 *179:100 0.000223597
74 *124:14 *179:132 0.000126109
75 *126:16 *179:6 9.41642e-05
76 *126:16 *179:75 0.000492018
77 *130:38 *179:132 0.000132088
78 *132:8 *179:132 0.000746904
79 *133:22 *179:100 0.000158287
80 *133:22 *179:108 0.000175428
81 *134:14 *179:140 0.000263732
82 *138:10 *179:100 3.42526e-05
83 *140:12 *179:100 0.000454812
84 *155:57 *179:108 5.1588e-05
85 *156:25 *179:6 4.58194e-05
86 *156:25 *179:75 0.00024845
87 *165:37 *1530:A 0.000928846
88 *168:14 *179:75 0.00045502
89 *168:14 *179:100 0.00090417
90 *170:12 *1533:A 0.000167304
91 *170:12 *179:28 0.000483247
92 *175:43 *179:18 4.53834e-05
93 *175:62 *179:18 0.000508771
94 *176:41 *179:18 0.000133477
95 *178:14 *179:140 0.000463838
*RES
1 *1525:X *179:6 10.2464 
2 *179:6 *179:18 21.0357 
3 *179:18 *179:28 36.2679 
4 *179:28 *1533:A 40.9964 
5 *179:28 *1526:A 20.1214 
6 *179:18 *1527:A 13.8 
7 *179:6 *179:75 23.75 
8 *179:75 *1531:A 13.8 
9 *179:75 *179:100 29.375 
10 *179:100 *179:108 43.875 
11 *179:108 *1534:A 9.3 
12 *179:100 *1532:A 9.3 
13 *179:100 *179:132 29 
14 *179:132 *179:140 25.4643 
15 *179:140 *179:148 21.8393 
16 *179:148 *1530:A 30.8 
17 *179:148 *1535:A 12.3 
18 *179:140 *1529:A 9.3 
19 *179:132 *1528:A 9.3 
*END

*D_NET *180 0.0408709
*CONN
*I *1543:A I *D sky130_fd_sc_hd__inv_2
*I *1544:A I *D sky130_fd_sc_hd__inv_2
*I *1538:A I *D sky130_fd_sc_hd__inv_2
*I *1537:A I *D sky130_fd_sc_hd__inv_2
*I *1540:A I *D sky130_fd_sc_hd__inv_2
*I *1542:A I *D sky130_fd_sc_hd__inv_2
*I *1541:A I *D sky130_fd_sc_hd__inv_2
*I *1545:A I *D sky130_fd_sc_hd__inv_2
*I *1539:A I *D sky130_fd_sc_hd__inv_2
*I *1546:A I *D sky130_fd_sc_hd__inv_2
*I *1536:X O *D sky130_fd_sc_hd__clkbuf_8
*CAP
1 *1543:A 0
2 *1544:A 0.000124985
3 *1538:A 2.12392e-05
4 *1537:A 0.000144906
5 *1540:A 0.000380915
6 *1542:A 0
7 *1541:A 0.00010398
8 *1545:A 5.38419e-05
9 *1539:A 0.000130217
10 *1546:A 0
11 *1536:X 0.000645523
12 *180:143 0.000950962
13 *180:123 0.0011852
14 *180:86 0.000416267
15 *180:71 0.00118842
16 *180:67 0.00254481
17 *180:56 0.00217344
18 *180:35 0.00187411
19 *180:29 0.00229394
20 *180:14 0.00159373
21 *180:8 0.00130089
22 *1537:A *1584:CLK 0.000115798
23 *1537:A *199:36 9.83388e-05
24 *1538:A *221:84 5.33005e-05
25 *1539:A *1410:B 4.21308e-05
26 *1540:A *1457:B1 0.00055422
27 *1540:A *195:16 5.50052e-05
28 *1540:A *201:72 0
29 *1540:A *202:66 5.36422e-05
30 *1541:A *1457:A1 2.82057e-05
31 *1544:A *1481:A 5.33005e-05
32 *180:8 *1553:A 0.000310612
33 *180:14 *1407:B 2.59355e-05
34 *180:14 *1407:C 0.00126257
35 *180:14 *1407:D 2.40513e-05
36 *180:14 *1429:B1 0.00128693
37 *180:14 *1486:A2 4.93274e-05
38 *180:14 *200:10 0.000105966
39 *180:29 *1407:B 1.52217e-05
40 *180:29 *1429:B1 3.18809e-05
41 *180:29 *219:47 7.15632e-05
42 *180:29 *219:49 0.00231111
43 *180:29 *220:10 0.000349054
44 *180:35 *1561:CLK 0.000406015
45 *180:35 *185:41 0.000211658
46 *180:35 *210:14 0.000178425
47 *180:35 *210:22 0.000268762
48 *180:56 *1410:B 0.000330435
49 *180:56 *1561:CLK 6.05161e-06
50 *180:56 *210:14 4.46231e-06
51 *180:67 *1580:CLK 9.49808e-05
52 *180:67 *1584:CLK 0.000160096
53 *180:67 *1597:A 0.000185435
54 *180:123 *219:49 0.00042115
55 *180:143 *1478:A 5.33005e-05
56 *180:143 *188:76 0
57 *180:143 *189:32 3.63775e-05
58 *180:143 *207:122 0.000168939
59 *180:143 *221:84 8.46386e-05
60 *180:143 *226:20 0.000170654
61 *1427:B *180:8 2.85234e-05
62 *1433:B *1538:A 1.24368e-05
63 *1433:B *1544:A 0.00021559
64 *1433:B *180:143 1.04232e-05
65 *1448:B *180:143 0.000257222
66 *1457:A2 *1540:A 0
67 *1457:A2 *1541:A 0.000126439
68 *1459:C *180:14 5.33005e-05
69 *1459:C *180:29 9.67754e-05
70 *1461:B *180:67 0
71 *1469:B *1544:A 5.33005e-05
72 *1486:A4 *180:14 0.000189794
73 *1505:A1 *1540:A 0
74 *1505:C1 *1540:A 1.94945e-05
75 *1561:D *180:35 0.000685877
76 *1561:D *180:56 4.40153e-05
77 *1575:RESET_B *1540:A 0.000208075
78 *1576:D *180:123 0.000215288
79 *1576:D *180:143 0.000205429
80 *1576:RESET_B *180:143 0.000394502
81 *33:22 *180:143 0.000251574
82 *57:16 *1539:A 9.83442e-05
83 *59:8 *180:143 0.00012001
84 *66:8 *1545:A 0.000116295
85 *67:10 *180:29 5.66971e-05
86 *73:12 *180:8 0.000630754
87 *85:10 *180:143 6.86693e-05
88 *92:14 *180:143 6.05161e-06
89 *92:20 *180:29 0.00165901
90 *92:20 *180:123 0.000413249
91 *99:20 *1540:A 5.33005e-05
92 *99:24 *180:71 0.000354105
93 *105:77 *180:8 4.97967e-05
94 *111:6 *180:8 9.86486e-06
95 *120:30 *1539:A 9.99853e-05
96 *128:20 *1544:A 0.000211432
97 *128:20 *180:143 0.000514152
98 *129:97 *1540:A 6.17734e-05
99 *134:14 *180:67 0
100 *134:26 *180:56 2.30913e-05
101 *136:24 *180:56 0.000299467
102 *136:24 *180:67 6.71336e-05
103 *137:24 *180:14 0.000120387
104 *137:24 *180:29 0.000185888
105 *139:14 *180:56 0.000329661
106 *139:14 *180:67 0.00111419
107 *141:10 *180:56 0
108 *143:10 *180:56 1.12578e-05
109 *143:10 *180:67 0.000472343
110 *143:41 *1539:A 7.51785e-05
111 *143:41 *180:56 4.52652e-05
112 *146:10 *180:143 0.00147725
113 *147:118 *180:143 0.000150611
114 *147:145 *180:143 0.000317301
115 *156:10 *180:56 0.0012182
116 *156:25 *1545:A 0.000225982
117 *175:18 *180:29 0.000156775
118 *179:140 *180:67 0.000182484
*RES
1 *1536:X *180:8 28.3 
2 *180:8 *180:14 27.0179 
3 *180:14 *1546:A 9.3 
4 *180:14 *180:29 37.5 
5 *180:29 *180:35 27.6071 
6 *180:35 *1539:A 16.9964 
7 *180:35 *180:56 28.3214 
8 *180:56 *1545:A 15.9786 
9 *180:56 *180:67 32 
10 *180:67 *180:71 21.875 
11 *180:71 *1541:A 20.6839 
12 *180:71 *180:86 0.535714 
13 *180:86 *1542:A 9.3 
14 *180:86 *1540:A 28.3179 
15 *180:67 *1537:A 16.9964 
16 *180:29 *180:123 14.3214 
17 *180:123 *180:143 46.4643 
18 *180:143 *1538:A 9.83571 
19 *180:143 *1544:A 21.6929 
20 *180:123 *1543:A 9.3 
*END

*D_NET *181 0.034843
*CONN
*I *1549:A I *D sky130_fd_sc_hd__inv_2
*I *1550:A I *D sky130_fd_sc_hd__inv_2
*I *1554:A I *D sky130_fd_sc_hd__inv_2
*I *1548:A I *D sky130_fd_sc_hd__inv_2
*I *1553:A I *D sky130_fd_sc_hd__inv_2
*I *1555:A I *D sky130_fd_sc_hd__inv_2
*I *1552:A I *D sky130_fd_sc_hd__inv_2
*I *1557:A I *D sky130_fd_sc_hd__inv_2
*I *1551:A I *D sky130_fd_sc_hd__inv_2
*I *1556:A I *D sky130_fd_sc_hd__inv_2
*I *1547:X O *D sky130_fd_sc_hd__clkbuf_8
*CAP
1 *1549:A 0
2 *1550:A 0
3 *1554:A 0
4 *1548:A 0
5 *1553:A 0.000588107
6 *1555:A 2.99504e-05
7 *1552:A 0
8 *1557:A 0
9 *1551:A 0.000454461
10 *1556:A 5.32724e-05
11 *1547:X 0.000581788
12 *181:107 0.00272609
13 *181:103 0.00335542
14 *181:95 0.00146419
15 *181:57 0.000720773
16 *181:51 0.00074833
17 *181:32 0.000998104
18 *181:28 0.00055612
19 *181:24 0.00331108
20 *181:22 0.00331047
21 *181:18 0.000949509
22 *181:16 0.000810405
23 *181:10 0.000752186
24 *1551:A *197:10 0.000949871
25 *1551:A *200:88 0.000151938
26 *1551:A *221:12 0
27 *1553:A *1536:A 0.00044531
28 *1555:A *1568:CLK 9.41642e-05
29 *1555:A *225:14 9.41642e-05
30 *1556:A *1411:C 0.000143583
31 *181:10 *1408:C 0.000101777
32 *181:10 *1433:A 0.000392447
33 *181:10 *185:20 0
34 *181:10 *216:26 0
35 *181:10 *221:98 0.000146254
36 *181:16 *216:26 1.21041e-05
37 *181:16 *221:98 0.000197999
38 *181:18 *216:26 0.000276855
39 *181:18 *216:41 0.000351566
40 *181:22 *216:41 0.000227729
41 *181:24 *1460:A 4.96113e-05
42 *181:24 *189:28 0.000642678
43 *181:51 *1411:A 0.000134334
44 *181:51 *1411:C 0.000709959
45 *181:51 *197:10 5.73473e-05
46 *181:57 *197:10 0.000186611
47 *181:57 *200:88 1.62237e-05
48 *181:103 *1559:A 0.00022266
49 *181:107 *191:86 0
50 *1435:B *181:107 0
51 *1440:B *181:28 0.000160403
52 *1440:B *181:32 0.000125731
53 *1460:B *181:24 0.00017803
54 *1479:C *181:16 0
55 *1479:C *181:18 0
56 *1485:B1 *181:103 0.00154557
57 *1485:B1 *181:107 5.7616e-05
58 *1492:B *181:18 2.37944e-05
59 *1493:B *181:18 0.000190311
60 *1507:B *181:24 0.000839228
61 *1510:B *181:107 0.000154762
62 *1518:B *181:24 9.431e-05
63 *1524:B1_N *181:18 0.000369804
64 *1564:RESET_B *181:24 0.000139625
65 *1570:D *181:107 3.58978e-05
66 *68:10 *181:103 0.000190067
67 *70:10 *181:18 0.000571218
68 *70:10 *181:22 0.000121606
69 *72:10 *181:32 0.000447984
70 *75:12 *181:28 0.000168939
71 *75:12 *181:32 5.58941e-05
72 *79:8 *181:103 0.000307343
73 *84:40 *181:103 0
74 *84:53 *181:103 0
75 *88:24 *181:24 2.70242e-05
76 *88:34 *181:24 0.000512226
77 *88:46 *181:103 0
78 *88:46 *181:107 0
79 *89:12 *181:107 5.6394e-05
80 *98:28 *181:51 9.74665e-05
81 *107:24 *181:18 0.000197797
82 *109:12 *181:24 0.000191419
83 *111:6 *1553:A 8.03715e-05
84 *120:30 *181:32 0.00031345
85 *135:14 *181:24 5.33005e-05
86 *155:22 *181:24 1.40034e-05
87 *161:24 *181:32 0.000195377
88 *165:37 *181:32 0
89 *180:8 *1553:A 0.000310612
*RES
1 *1547:X *181:10 25.9964 
2 *181:10 *181:16 3.92857 
3 *181:16 *181:18 19.5536 
4 *181:18 *181:22 7.35714 
5 *181:22 *181:24 52.2857 
6 *181:24 *181:28 6.75 
7 *181:28 *181:32 16.4643 
8 *181:32 *1556:A 10.6571 
9 *181:32 *181:51 15.6607 
10 *181:51 *181:57 6.05357 
11 *181:57 *1551:A 26.7107 
12 *181:57 *1557:A 13.8 
13 *181:51 *1552:A 13.8 
14 *181:28 *1555:A 14.7464 
15 *181:18 *181:95 7.91071 
16 *181:95 *181:103 34.9821 
17 *181:103 *181:107 43.4821 
18 *181:107 *1553:A 22.1571 
19 *181:103 *1548:A 13.8 
20 *181:95 *1554:A 9.3 
21 *181:16 *1550:A 13.8 
22 *181:10 *1549:A 13.8 
*END

*D_NET *182 0.0194608
*CONN
*I *1597:A I *D sky130_fd_sc_hd__clkbuf_16
*I *1596:A I *D sky130_fd_sc_hd__clkbuf_16
*I *1595:A I *D sky130_fd_sc_hd__clkbuf_16
*I *1594:A I *D sky130_fd_sc_hd__clkbuf_16
*I *1593:X O *D sky130_fd_sc_hd__clkbuf_16
*CAP
1 *1597:A 0.00083875
2 *1596:A 0.000500538
3 *1595:A 0.00137562
4 *1594:A 7.75711e-05
5 *1593:X 9.72391e-05
6 *182:48 0.00210658
7 *182:18 0.00295082
8 *182:14 0.00236216
9 *1594:A *224:12 2.26055e-05
10 *1595:A *1392:A 0.000288958
11 *1595:A *206:40 3.42098e-05
12 *1596:A *221:74 0.00069065
13 *1596:A *222:30 0.000179617
14 *1597:A *221:74 0.000634521
15 *182:18 *223:35 0.000103012
16 *182:48 *223:35 2.03928e-05
17 *182:48 *225:71 0.000158874
18 *1452:C *1595:A 0.00018116
19 *1502:A *182:18 0.00185809
20 *1502:A *182:48 0.00177925
21 *1504:A *1596:A 1.03926e-05
22 *1566:D *1595:A 0
23 *1583:RESET_B *1595:A 0.000111407
24 *44:26 *182:18 0
25 *47:64 *182:14 2.06178e-05
26 *54:18 *1596:A 5.22477e-05
27 *54:18 *1597:A 0.000335234
28 *106:14 *1594:A 4.29498e-05
29 *106:55 *182:18 0.000403447
30 *106:55 *182:48 0.00160483
31 *119:10 *182:18 0.000130458
32 *125:12 *182:14 2.06178e-05
33 *128:20 *182:18 0
34 *142:22 *182:14 2.04745e-05
35 *143:10 *1597:A 0.000185435
36 *166:26 *1594:A 4.37712e-06
37 *166:26 *1595:A 2.88322e-05
38 *179:75 *1596:A 4.34648e-05
39 *180:67 *1597:A 0.000185435
*RES
1 *1593:X *182:14 21.0519 
2 *182:14 *182:18 7.9314 
3 *182:18 *1594:A 17.8734 
4 *182:18 *1595:A 22.001 
5 *182:14 *182:48 7.2922 
6 *182:48 *1596:A 18.9544 
7 *182:48 *1597:A 21.8286 
*END

*D_NET *183 0.024094
*CONN
*I *1573:CLK I *D sky130_fd_sc_hd__dfrtp_1
*I *1591:CLK I *D sky130_fd_sc_hd__dfrtp_4
*I *1598:A I *D sky130_fd_sc_hd__clkinv_2
*I *1569:CLK I *D sky130_fd_sc_hd__dfrtp_2
*I *1571:CLK I *D sky130_fd_sc_hd__dfrtp_4
*I *1589:CLK I *D sky130_fd_sc_hd__dfrtp_4
*I *1582:CLK I *D sky130_fd_sc_hd__dfrtp_1
*I *1570:CLK I *D sky130_fd_sc_hd__dfrtp_4
*I *1578:CLK I *D sky130_fd_sc_hd__dfrtp_4
*I *1594:X O *D sky130_fd_sc_hd__clkbuf_16
*CAP
1 *1573:CLK 0
2 *1591:CLK 0.000370518
3 *1598:A 0
4 *1569:CLK 0.0020279
5 *1571:CLK 4.39374e-05
6 *1589:CLK 0
7 *1582:CLK 0
8 *1570:CLK 0.00116941
9 *1578:CLK 0.000532964
10 *1594:X 0.000111061
11 *183:103 0.000457508
12 *183:96 0.000286974
13 *183:64 0.00293382
14 *183:22 0.00207316
15 *183:16 0.000675681
16 *183:10 0.000592292
17 *183:8 0.0013274
18 *183:6 0.000489063
19 *1570:CLK *1406:A2 5.33005e-05
20 *1570:CLK *201:14 0.000150232
21 *1578:CLK *1406:A1 0
22 *1578:CLK *1406:B1 6.14514e-05
23 *1578:CLK *1486:A3 0.000192282
24 *1591:CLK *210:36 0.000221978
25 *183:6 *190:18 0.000155669
26 *183:16 *201:14 0.000790611
27 *183:16 *217:29 0.000781889
28 *183:22 *1406:B1 5.40609e-05
29 *183:22 *201:14 0.000874395
30 *183:22 *217:29 0.000709841
31 *183:64 *188:20 0.000119738
32 *183:64 *213:61 0
33 *183:64 *213:81 7.12029e-06
34 *183:96 *1515:A 5.74309e-05
35 *183:96 *190:31 0.000138655
36 *1417:A1 *1569:CLK 1.99406e-05
37 *1427:A *1578:CLK 5.68479e-05
38 *1427:A *183:22 2.14378e-05
39 *1428:A *1578:CLK 0.000266501
40 *1428:A *183:22 0.000167042
41 *1430:B *1578:CLK 4.06715e-05
42 *1459:B *1569:CLK 9.20285e-05
43 *1459:B *183:64 7.91329e-05
44 *1498:A1 *183:16 0.000116929
45 *1498:B1 *183:64 0
46 *1517:C1 *1569:CLK 0
47 *1526:A *1569:CLK 1.10909e-05
48 *1569:D *1569:CLK 4.31597e-05
49 *1569:RESET_B *1569:CLK 0.00150673
50 *1570:RESET_B *1570:CLK 1.34278e-05
51 *1571:RESET_B *1571:CLK 9.83388e-05
52 *1573:RESET_B *1591:CLK 0.000126306
53 *1578:D *1578:CLK 8.07313e-05
54 *1589:D *183:10 6.71662e-05
55 *1589:D *183:16 0.000133298
56 *1589:RESET_B *183:6 0.000333786
57 *1589:RESET_B *183:8 0.000345773
58 *1591:D *1591:CLK 0.000359087
59 *1591:D *183:96 0.000111376
60 *1591:D *183:103 9.88401e-05
61 *22:18 *1569:CLK 9.11048e-06
62 *22:18 *183:64 0.00115755
63 *23:16 *1569:CLK 0.000187351
64 *24:14 *1591:CLK 2.85234e-05
65 *74:22 *183:16 0.000118712
66 *79:20 *183:8 1.23304e-05
67 *79:20 *183:10 0.000200842
68 *79:20 *183:16 2.56723e-05
69 *83:12 *183:96 8.22103e-05
70 *97:22 *1571:CLK 5.20669e-05
71 *163:16 *1591:CLK 1.21258e-05
72 *163:16 *183:96 0.000176714
73 *163:16 *183:103 0.000165908
74 *163:56 *1591:CLK 0.000157916
75 *175:18 *183:96 5.70105e-05
*RES
1 *1594:X *183:6 12.7107 
2 *183:6 *183:8 3.82143 
3 *183:8 *183:10 5.875 
4 *183:10 *183:16 17.2321 
5 *183:16 *183:22 13.5357 
6 *183:22 *1578:CLK 26.175 
7 *183:22 *1570:CLK 28.2107 
8 *183:16 *1582:CLK 13.8 
9 *183:10 *1589:CLK 9.3 
10 *183:8 *183:64 22.5893 
11 *183:64 *1571:CLK 15.175 
12 *183:64 *1569:CLK 41.3 
13 *183:6 *183:96 14.9643 
14 *183:96 *1598:A 9.3 
15 *183:96 *183:103 3 
16 *183:103 *1591:CLK 18.8893 
17 *183:103 *1573:CLK 9.3 
*END

*D_NET *184 0.0163558
*CONN
*I *1564:CLK I *D sky130_fd_sc_hd__dfrtp_4
*I *1572:CLK I *D sky130_fd_sc_hd__dfrtp_2
*I *1577:CLK I *D sky130_fd_sc_hd__dfrtp_4
*I *1583:CLK I *D sky130_fd_sc_hd__dfrtp_1
*I *1566:CLK I *D sky130_fd_sc_hd__dfrtp_2
*I *1574:CLK I *D sky130_fd_sc_hd__dfrtp_1
*I *1562:CLK I *D sky130_fd_sc_hd__dfrtp_4
*I *1567:CLK I *D sky130_fd_sc_hd__dfrtp_2
*I *1585:CLK I *D sky130_fd_sc_hd__dfrtp_4
*I *1560:CLK I *D sky130_fd_sc_hd__dfrtp_4
*I *1586:CLK I *D sky130_fd_sc_hd__dfrtp_1
*I *1595:X O *D sky130_fd_sc_hd__clkbuf_16
*CAP
1 *1564:CLK 0
2 *1572:CLK 0.000194106
3 *1577:CLK 0
4 *1583:CLK 0
5 *1566:CLK 0.000256496
6 *1574:CLK 0.000246057
7 *1562:CLK 0.000206862
8 *1567:CLK 0.000161803
9 *1585:CLK 2.30974e-05
10 *1560:CLK 0
11 *1586:CLK 0.000629902
12 *1595:X 0
13 *184:112 0.00030223
14 *184:108 0.000472408
15 *184:84 0.000528215
16 *184:28 0.000865843
17 *184:24 0.000712872
18 *184:14 0.000740802
19 *184:12 0.000396391
20 *184:10 0.000412339
21 *184:8 0.000517504
22 *184:6 0.00050815
23 *1562:CLK *1604:A 3.32631e-05
24 *1566:CLK *206:40 0.000168829
25 *1567:CLK *1392:C 0.000233602
26 *1572:CLK *201:46 0
27 *1574:CLK *205:14 0.000566251
28 *1585:CLK *217:10 9.71197e-05
29 *184:8 *194:22 0.000415047
30 *184:10 *194:22 0.000352528
31 *184:12 *194:22 0.000163526
32 *184:14 *1509:A 0
33 *184:14 *194:22 4.35131e-05
34 *184:24 *1509:A 7.08476e-05
35 *184:24 *217:10 0.000217141
36 *184:24 *217:12 0.000142856
37 *184:108 *191:30 0.00010688
38 *184:108 *194:22 0.000927296
39 *184:112 *201:46 0
40 *1432:A *184:112 6.8646e-06
41 *1462:A *184:24 0
42 *1501:A *184:84 2.59355e-05
43 *1501:C *184:84 2.63605e-05
44 *1514:C1 *184:24 0.00010773
45 *1562:D *1562:CLK 6.36335e-05
46 *1572:D *1572:CLK 6.94952e-05
47 *1574:D *1574:CLK 1.33343e-05
48 *1583:D *184:84 0.000679312
49 *1585:D *1585:CLK 6.05161e-06
50 *1585:RESET_B *1585:CLK 2.77289e-05
51 *1585:RESET_B *184:24 0.000141326
52 *20:14 *1586:CLK 1.95368e-05
53 *20:14 *184:28 0.000108088
54 *37:10 *184:28 3.17067e-05
55 *41:14 *184:108 7.019e-05
56 *50:18 *184:8 0.000422083
57 *50:18 *184:10 0.000361071
58 *50:18 *184:12 0.000196269
59 *50:18 *184:14 5.83233e-05
60 *50:18 *184:108 0.000935122
61 *67:10 *1566:CLK 9.53323e-05
62 *93:55 *1567:CLK 0.000694754
63 *104:45 *1567:CLK 0.000122091
64 *105:121 *184:108 0.000135028
65 *111:6 *1586:CLK 0.000713645
66 *114:24 *184:84 0.000139344
67 *115:30 *184:14 0
68 *115:30 *184:24 0
69 *165:35 *184:108 9.58181e-05
70 *165:37 *1572:CLK 9.39854e-05
71 *165:37 *184:112 9.57064e-05
72 *171:12 *1566:CLK 8.61222e-05
*RES
1 *1595:X *184:6 13.8 
2 *184:6 *184:8 5.58929 
3 *184:8 *184:10 4.67857 
4 *184:10 *184:12 2.55357 
5 *184:12 *184:14 2.55357 
6 *184:14 *184:24 15.9821 
7 *184:24 *184:28 9.48214 
8 *184:28 *1586:CLK 28.8 
9 *184:28 *1560:CLK 13.8 
10 *184:24 *1585:CLK 10.2464 
11 *184:14 *1567:CLK 20.4964 
12 *184:12 *1562:CLK 17.2107 
13 *184:10 *1574:CLK 19.2643 
14 *184:8 *184:84 11.1964 
15 *184:84 *1566:CLK 23.55 
16 *184:84 *1583:CLK 9.3 
17 *184:6 *184:108 19.0536 
18 *184:108 *184:112 7.05357 
19 *184:112 *1577:CLK 13.8 
20 *184:112 *1572:CLK 17.7107 
21 *184:108 *1564:CLK 9.3 
*END

*D_NET *185 0.0292045
*CONN
*I *1565:CLK I *D sky130_fd_sc_hd__dfrtp_2
*I *1581:CLK I *D sky130_fd_sc_hd__dfrtp_2
*I *1576:CLK I *D sky130_fd_sc_hd__dfrtp_4
*I *1561:CLK I *D sky130_fd_sc_hd__dfrtp_4
*I *1599:A I *D sky130_fd_sc_hd__clkinvlp_4
*I *1587:CLK I *D sky130_fd_sc_hd__dfrtp_4
*I *1588:CLK I *D sky130_fd_sc_hd__dfrtp_4
*I *1596:X O *D sky130_fd_sc_hd__clkbuf_16
*CAP
1 *1565:CLK 0.000473831
2 *1581:CLK 0
3 *1576:CLK 0
4 *1561:CLK 0.000545193
5 *1599:A 0.000166805
6 *1587:CLK 0
7 *1588:CLK 0.000454786
8 *1596:X 0.00104194
9 *185:45 0.000644684
10 *185:41 0.00191197
11 *185:35 0.00146342
12 *185:20 0.00238066
13 *185:16 0.00267954
14 *185:8 0.00284397
15 *1561:CLK *190:67 0.000532195
16 *1565:CLK *213:22 0
17 *1565:CLK *216:18 7.83587e-05
18 *1565:CLK *216:22 2.59355e-05
19 *1588:CLK *191:84 3.48305e-05
20 *1599:A *1413:D 9.41642e-05
21 *1599:A *227:26 5.43273e-05
22 *185:8 *1395:B 0
23 *185:8 *188:113 0.000101545
24 *185:8 *224:18 0.00105889
25 *185:16 *199:28 0.000708692
26 *185:16 *213:22 0.000449539
27 *185:20 *1403:A1 0.000177934
28 *185:20 *187:22 8.04685e-05
29 *185:20 *217:35 0.00125756
30 *185:35 *191:84 2.94709e-06
31 *185:41 *190:67 0.000276684
32 *185:45 *222:30 0.00011217
33 *1414:A2 *185:16 0
34 *1414:A2 *185:20 0
35 *1424:A *1599:A 0
36 *1427:A *185:35 0.000154703
37 *1448:A *185:20 0.000101915
38 *1448:A *185:35 0.000300915
39 *1479:C *185:20 0
40 *1502:A *185:8 0.000176806
41 *1504:A *185:16 5.33005e-05
42 *1504:B *185:16 5.33005e-05
43 *1519:B1 *185:8 0.000113942
44 *1561:D *1561:CLK 0.000683954
45 *1581:D *185:20 0.000200422
46 *1584:D *1565:CLK 5.42185e-05
47 *11:23 *185:16 0
48 *11:23 *185:20 0.000125466
49 *11:23 *185:45 2.06178e-05
50 *47:79 *185:45 2.56785e-05
51 *59:8 *185:35 0.00082379
52 *59:8 *185:41 0.000349011
53 *65:24 *185:45 0.000133499
54 *93:18 *185:20 0.000208487
55 *95:78 *185:35 0.000354294
56 *95:78 *185:41 0.000171271
57 *96:10 *185:20 0
58 *97:44 *185:20 0
59 *97:53 *185:20 0
60 *102:26 *185:8 0
61 *103:33 *1599:A 0.00020882
62 *103:33 *185:45 0.00122816
63 *110:16 *185:35 0.000131635
64 *123:12 *1565:CLK 0
65 *123:12 *185:8 0
66 *134:26 *185:45 0.000117189
67 *134:40 *185:45 0.000714129
68 *155:57 *185:8 0.00127593
69 *155:57 *185:16 0.000485537
70 *162:24 *185:16 0.000172688
71 *179:28 *185:41 0.00048808
72 *180:35 *1561:CLK 0.000406015
73 *180:35 *185:41 0.000211658
74 *180:56 *1561:CLK 6.05161e-06
75 *181:10 *185:20 0
*RES
1 *1596:X *185:8 41.8536 
2 *185:8 *185:16 36.5 
3 *185:16 *185:20 35.5893 
4 *185:20 *1588:CLK 14.5679 
5 *185:20 *185:35 18.6607 
6 *185:35 *185:41 24.0893 
7 *185:41 *185:45 21.3214 
8 *185:45 *1587:CLK 13.8 
9 *185:45 *1599:A 17.6036 
10 *185:41 *1561:CLK 23.8 
11 *185:35 *1576:CLK 13.8 
12 *185:16 *1581:CLK 13.8 
13 *185:8 *1565:CLK 20.1929 
*END

*D_NET *186 0.0212976
*CONN
*I *1600:A I *D sky130_fd_sc_hd__bufinv_16
*I *1568:CLK I *D sky130_fd_sc_hd__dfrtp_4
*I *1579:CLK I *D sky130_fd_sc_hd__dfrtp_2
*I *1563:CLK I *D sky130_fd_sc_hd__dfrtp_1
*I *1575:CLK I *D sky130_fd_sc_hd__dfrtp_2
*I *1584:CLK I *D sky130_fd_sc_hd__dfrtp_4
*I *1580:CLK I *D sky130_fd_sc_hd__dfrtp_2
*I *1590:CLK I *D sky130_fd_sc_hd__dfrtp_4
*I *1597:X O *D sky130_fd_sc_hd__clkbuf_16
*CAP
1 *1600:A 0.000699919
2 *1568:CLK 0.000138346
3 *1579:CLK 0
4 *1563:CLK 0.000496112
5 *1575:CLK 0.000242596
6 *1584:CLK 0.000621384
7 *1580:CLK 9.04864e-05
8 *1590:CLK 7.03391e-05
9 *1597:X 0.000171106
10 *186:74 0.000735557
11 *186:72 0.000851744
12 *186:70 0.00139697
13 *186:27 0.000909911
14 *186:21 0.000780736
15 *186:10 0.000756797
16 *186:6 0.000740566
17 *1563:CLK *203:18 0.000222345
18 *1568:CLK *225:14 0.000159653
19 *1575:CLK *1421:B 0
20 *1575:CLK *191:8 2.24646e-05
21 *1575:CLK *191:30 8.78763e-05
22 *1575:CLK *191:43 5.33005e-05
23 *1575:CLK *206:8 0.000209238
24 *1575:CLK *206:14 0
25 *1580:CLK *202:74 0.000122501
26 *1584:CLK *203:88 7.79781e-06
27 *186:10 *1519:A1 7.66139e-05
28 *186:10 *187:138 0.000717545
29 *186:10 *191:30 0.000135273
30 *186:10 *200:129 2.50593e-05
31 *186:21 *1519:A1 0.000206913
32 *186:21 *206:14 0
33 *186:27 *201:76 0.000308538
34 *186:70 *187:138 0.000220998
35 *186:72 *191:30 0.000191616
36 *186:74 *191:30 0.000206524
37 *1432:A *1563:CLK 0.000353684
38 *1432:A *186:72 0.000220455
39 *1432:A *186:74 0.000783934
40 *1461:B *1580:CLK 3.34663e-05
41 *1461:B *1584:CLK 7.70532e-05
42 *1474:C *186:27 0.000432467
43 *1488:B *1600:A 4.25569e-05
44 *1499:B *1563:CLK 0.000638293
45 *1519:B1 *186:27 0.000996149
46 *1537:A *1584:CLK 0.000115798
47 *1555:A *1568:CLK 9.41642e-05
48 *1584:D *1584:CLK 9.441e-05
49 *23:32 *1563:CLK 0.00143778
50 *30:10 *186:70 0.000191097
51 *30:10 *186:72 0.000384351
52 *40:12 *1563:CLK 0.000261488
53 *42:10 *1584:CLK 0
54 *43:8 *1584:CLK 0.000272321
55 *45:28 *1568:CLK 0.000426556
56 *50:10 *186:10 0.000102891
57 *50:10 *186:21 3.70696e-05
58 *50:10 *186:72 0
59 *50:18 *1563:CLK 0.000353684
60 *50:18 *186:72 0.000199473
61 *50:18 *186:74 0.000775398
62 *51:10 *186:70 0
63 *51:10 *186:72 0
64 *82:12 *1590:CLK 7.2156e-05
65 *129:103 *1575:CLK 0.000160302
66 *136:24 *1584:CLK 6.53083e-05
67 *175:89 *1575:CLK 8.6229e-06
68 *175:89 *186:21 0.000145034
69 *179:148 *186:10 0.000589726
70 *180:67 *1580:CLK 9.49808e-05
71 *180:67 *1584:CLK 0.000160096
*RES
1 *1597:X *186:6 11.4786 
2 *186:6 *186:10 17.0714 
3 *186:10 *1590:CLK 15.1571 
4 *186:10 *186:21 7.41071 
5 *186:21 *186:27 18.5714 
6 *186:27 *1580:CLK 16.3536 
7 *186:27 *1584:CLK 27.6214 
8 *186:21 *1575:CLK 20.2821 
9 *186:6 *186:70 10.125 
10 *186:70 *186:72 12.2679 
11 *186:72 *186:74 10.1429 
12 *186:74 *1563:CLK 32.5679 
13 *186:74 *1579:CLK 13.8 
14 *186:72 *1568:CLK 18.0321 
15 *186:70 *1600:A 23.7821 
*END

*D_NET *187 0.0415507
*CONN
*I *1519:A1 I *D sky130_fd_sc_hd__a21oi_1
*I *1397:A I *D sky130_fd_sc_hd__nor2_2
*I *1403:B1 I *D sky130_fd_sc_hd__a21oi_1
*I *1516:B I *D sky130_fd_sc_hd__and3b_1
*I *1404:A2 I *D sky130_fd_sc_hd__a21oi_1
*I *1520:C I *D sky130_fd_sc_hd__or3_1
*I *1392:C I *D sky130_fd_sc_hd__and3_2
*I *1401:A2 I *D sky130_fd_sc_hd__a21oi_1
*I *1588:Q O *D sky130_fd_sc_hd__dfrtp_4
*CAP
1 *1519:A1 0.000348736
2 *1397:A 0.000273846
3 *1403:B1 0.000205837
4 *1516:B 0.000278518
5 *1404:A2 9.79799e-05
6 *1520:C 0
7 *1392:C 0.00124589
8 *1401:A2 0
9 *1588:Q 0.00117455
10 *187:138 0.0010257
11 *187:132 0.00232665
12 *187:117 0.00272908
13 *187:69 0.00173203
14 *187:61 0.00123377
15 *187:50 0.000649652
16 *187:48 0.00156925
17 *187:22 0.00249314
18 *187:14 0.00241963
19 *1392:C *1520:A 8.6229e-06
20 *1392:C *209:60 0
21 *1397:A *1440:A 0.000178425
22 *1397:A *1458:A 0.000139202
23 *1397:A *200:129 1.98839e-05
24 *1403:B1 *212:30 0.000390933
25 *1404:A2 *1404:A1 0.000254415
26 *187:14 *1403:A1 5.49489e-05
27 *187:14 *1492:A 0.000228566
28 *187:14 *191:84 9.20399e-05
29 *187:14 *212:38 2.04658e-05
30 *187:22 *217:35 0.000138243
31 *187:48 *1401:A1 0.000143967
32 *187:48 *201:30 0.000392246
33 *187:48 *207:20 0.00048827
34 *187:48 *213:61 0.000362108
35 *187:48 *213:81 5.10822e-05
36 *187:61 *1404:A1 0.000135028
37 *187:61 *214:37 0.000307717
38 *187:61 *227:59 0.000802773
39 *187:69 *1441:A 0.000241987
40 *187:69 *204:10 9.65217e-05
41 *187:69 *210:36 4.18505e-05
42 *187:69 *218:20 0.000180956
43 *187:69 *223:35 0.000636516
44 *187:117 *1403:A1 0.000595507
45 *187:117 *191:72 0
46 *187:132 *1487:D 0.000449196
47 *187:132 *212:30 0.000662569
48 *187:138 *191:30 0.000141667
49 *1397:B *1397:A 0.000510313
50 *1404:B1 *1404:A2 0.000180072
51 *1404:B1 *187:61 0.00139409
52 *1423:B *187:22 5.33005e-05
53 *1448:A *187:22 0.000124157
54 *1448:B *187:22 0.000865748
55 *1454:B *1516:B 1.38323e-05
56 *1454:B *187:22 0.000260152
57 *1458:C *1397:A 6.72124e-05
58 *1459:B *187:48 0.000262685
59 *1476:B1 *1516:B 0.000307715
60 *1492:B *187:14 0.000120966
61 *1507:B *187:14 0.000104911
62 *1508:C *187:14 0.000198103
63 *1517:C1 *187:48 0.000182324
64 *1567:CLK *1392:C 0.000233602
65 *1588:RESET_B *187:14 7.86737e-05
66 *30:10 *1519:A1 0.000197717
67 *30:10 *187:138 0.000328685
68 *46:24 *187:48 0.000157793
69 *47:20 *187:69 0.000165802
70 *51:10 *187:138 5.25862e-06
71 *55:20 *1392:C 5.51386e-05
72 *55:20 *187:69 0.000308595
73 *59:8 *187:48 0.000709437
74 *87:34 *1403:B1 0.000679754
75 *87:34 *187:132 0.00178098
76 *88:8 *1397:A 3.55371e-05
77 *88:34 *187:22 0.0005425
78 *92:14 *187:117 0.000123333
79 *93:55 *1392:C 0.000263907
80 *95:70 *187:48 0.000125724
81 *97:44 *187:22 0.000162382
82 *105:12 *187:22 3.06511e-05
83 *120:42 *1392:C 0.000191195
84 *131:12 *187:22 1.58163e-05
85 *134:8 *1397:A 0.000505553
86 *146:10 *187:48 2.71996e-05
87 *147:99 *187:48 0.000575982
88 *162:24 *187:22 0.000175197
89 *165:16 *1404:A2 7.09928e-05
90 *165:16 *187:61 0.00038224
91 *165:37 *1519:A1 0.000100878
92 *167:24 *187:48 1.80769e-05
93 *170:12 *187:14 0.000146991
94 *175:18 *187:48 0
95 *175:89 *1519:A1 0.00014662
96 *179:148 *187:132 9.90367e-05
97 *179:148 *187:138 0.000101359
98 *185:20 *187:22 8.04685e-05
99 *186:10 *1519:A1 7.66139e-05
100 *186:10 *187:138 0.000717545
101 *186:21 *1519:A1 0.000206913
102 *186:70 *187:138 0.000220998
*RES
1 *1588:Q *187:14 36.8893 
2 *187:14 *187:22 28.3214 
3 *187:22 *187:48 49.5231 
4 *187:48 *187:50 4.5 
5 *187:50 *1401:A2 9.3 
6 *187:50 *187:61 18.3393 
7 *187:61 *187:69 23.6607 
8 *187:69 *1392:C 35.3714 
9 *187:69 *1520:C 9.3 
10 *187:61 *1404:A2 12.7286 
11 *187:22 *1516:B 13.1393 
12 *187:14 *187:117 18.0357 
13 *187:117 *1403:B1 15.9964 
14 *187:117 *187:132 43.375 
15 *187:132 *187:138 13.8393 
16 *187:138 *1397:A 23.1036 
17 *187:138 *1519:A1 23.3357 
*END

*D_NET *188 0.0385804
*CONN
*I *1392:B I *D sky130_fd_sc_hd__and3_2
*I *1401:B1 I *D sky130_fd_sc_hd__a21oi_1
*I *1522:B I *D sky130_fd_sc_hd__or3_1
*I *1395:B I *D sky130_fd_sc_hd__nor2_2
*I *1524:A1 I *D sky130_fd_sc_hd__a21boi_2
*I *1516:A_N I *D sky130_fd_sc_hd__and3b_1
*I *1517:A2 I *D sky130_fd_sc_hd__a2111o_1
*I *1589:Q O *D sky130_fd_sc_hd__dfrtp_4
*CAP
1 *1392:B 0.00252099
2 *1401:B1 2.85813e-05
3 *1522:B 0.000270055
4 *1395:B 0.00026974
5 *1524:A1 0.00103479
6 *1516:A_N 0.00020945
7 *1517:A2 0.000563253
8 *1589:Q 0
9 *188:158 0.00318531
10 *188:113 0.000754048
11 *188:105 0.00184811
12 *188:76 0.00381965
13 *188:45 0.00170821
14 *188:32 0.0017859
15 *188:20 0.00129485
16 *188:4 0.0010557
17 *1401:B1 *214:37 5.33005e-05
18 *1517:A2 *1517:A1 0.000178847
19 *1517:A2 *189:42 8.36572e-05
20 *1517:A2 *196:31 0.000180777
21 *1524:A1 *199:16 5.45307e-05
22 *188:32 *1503:A 2.2142e-05
23 *188:32 *214:16 0.00048037
24 *188:32 *214:37 4.22283e-05
25 *188:76 *221:84 1.3701e-05
26 *188:76 *221:98 6.05161e-06
27 *188:105 *191:72 0
28 *188:105 *212:16 0.000405745
29 *188:105 *221:84 0.000489283
30 *188:105 *221:98 6.26774e-06
31 *188:105 *225:71 0.000175892
32 *188:105 *226:20 5.13222e-05
33 *188:158 *1515:A 0.000270257
34 *188:158 *213:81 3.85853e-05
35 *1433:B *188:76 0
36 *1442:C *188:105 0.000196506
37 *1445:C1 *188:105 0.000445438
38 *1454:B *1516:A_N 0.000382744
39 *1459:B *188:20 0
40 *1459:B *188:158 9.25616e-05
41 *1498:B1 *188:20 1.00399e-05
42 *1500:B *188:20 2.55698e-05
43 *1502:A *1395:B 0.000158069
44 *1517:C1 *1517:A2 8.08521e-05
45 *1519:B1 *1395:B 5.20298e-05
46 *1524:B1_N *1524:A1 0.0005075
47 *1589:RESET_B *188:20 9.41642e-05
48 *22:18 *188:20 3.04311e-05
49 *33:22 *188:32 0.000418321
50 *47:12 *188:158 0
51 *47:174 *188:158 0
52 *48:12 *188:32 0.000953511
53 *48:12 *188:45 0.000165237
54 *79:20 *188:20 9.56645e-05
55 *87:66 *1395:B 7.07067e-05
56 *88:34 *1517:A2 0.000845983
57 *88:46 *1517:A2 3.05203e-05
58 *89:12 *1392:B 0.000733076
59 *93:51 *188:158 9.87385e-05
60 *93:55 *1392:B 0.00136211
61 *95:78 *188:45 0.000321539
62 *95:78 *188:76 0.00160051
63 *95:123 *188:158 0.000578234
64 *97:8 *188:32 0.000177753
65 *97:44 *188:32 7.90803e-05
66 *97:44 *188:45 0.000881494
67 *97:44 *188:76 0.00159428
68 *102:26 *1395:B 0.000255283
69 *117:8 *1524:A1 0.000261878
70 *122:32 *188:105 1.59312e-05
71 *123:12 *188:105 0.000177545
72 *124:14 *188:105 7.44262e-05
73 *127:24 *188:76 5.5766e-05
74 *139:33 *1522:B 0.000174317
75 *139:33 *188:113 0.000112995
76 *147:16 *188:32 8.87557e-05
77 *147:22 *188:32 0.000146474
78 *151:14 *1524:A1 5.52238e-05
79 *151:14 *188:105 0.000467849
80 *155:57 *188:113 0.00010326
81 *162:24 *188:76 0.000302042
82 *163:16 *188:20 0.000349458
83 *170:47 *1392:B 0.00014183
84 *175:18 *188:20 0.000265662
85 *175:18 *188:158 0.000326126
86 *180:143 *188:76 0
87 *183:64 *188:20 0.000119738
88 *185:8 *1395:B 0
89 *185:8 *188:113 0.000101545
*RES
1 *1589:Q *188:4 9.3 
2 *188:4 *188:20 27.4643 
3 *188:20 *188:32 24.5357 
4 *188:32 *1517:A2 25.4429 
5 *188:32 *188:45 11.6607 
6 *188:45 *1516:A_N 17.6214 
7 *188:45 *188:76 35.0247 
8 *188:76 *1524:A1 28.3536 
9 *188:76 *188:105 45.9464 
10 *188:105 *188:113 12.5179 
11 *188:113 *1395:B 25.1036 
12 *188:113 *1522:B 12.7107 
13 *188:20 *1401:B1 9.83571 
14 *188:4 *188:158 34.0714 
15 *188:158 *1392:B 42.6929 
*END

*D_NET *189 0.0426237
*CONN
*I *1393:A I *D sky130_fd_sc_hd__nand2_1
*I *1515:B I *D sky130_fd_sc_hd__nor2_2
*I *1520:B I *D sky130_fd_sc_hd__or3_1
*I *1396:A I *D sky130_fd_sc_hd__nand2_2
*I *1398:B2 I *D sky130_fd_sc_hd__o2bb2a_1
*I *1517:A1 I *D sky130_fd_sc_hd__a2111o_1
*I *1590:Q O *D sky130_fd_sc_hd__dfrtp_4
*CAP
1 *1393:A 3.82418e-05
2 *1515:B 0
3 *1520:B 0.000398404
4 *1396:A 0.000704016
5 *1398:B2 0.000897094
6 *1517:A1 0.000137117
7 *1590:Q 0.00122671
8 *189:80 0.00169498
9 *189:72 0.00132314
10 *189:53 0.00209584
11 *189:42 0.00154054
12 *189:32 0.00448711
13 *189:28 0.00394898
14 *189:14 0.00166209
15 *1396:A *210:36 0.00123807
16 *1398:B2 *1398:A1_N 0.000195073
17 *1398:B2 *227:97 0.000210482
18 *189:14 *200:100 9.17062e-05
19 *189:14 *201:61 0
20 *189:14 *201:72 0
21 *189:14 *202:49 0.00110349
22 *189:14 *202:66 0.000113331
23 *189:14 *221:74 0.000682975
24 *189:28 *206:14 0.00012401
25 *189:32 *194:14 0.000610851
26 *189:42 *1592:A 9.15842e-06
27 *189:42 *207:14 2.22043e-05
28 *189:42 *226:12 0.000140188
29 *189:72 *215:12 0.000435737
30 *189:80 *210:36 0.000394571
31 *189:80 *215:12 0.0019974
32 *1393:B *189:42 0.000241454
33 *1413:C *189:32 0.00105345
34 *1432:A *189:28 0.000229145
35 *1510:B *1398:B2 0.000266085
36 *1517:A2 *1517:A1 0.000178847
37 *1517:A2 *189:42 8.36572e-05
38 *1530:A *189:28 5.49544e-05
39 *1533:A *1398:B2 0.00022188
40 *1533:A *189:42 0.000271702
41 *1533:A *189:53 0.00158119
42 *1564:RESET_B *189:28 0.000119303
43 *1568:RESET_B *189:14 0
44 *1568:RESET_B *189:28 0.000265085
45 *1588:D *189:42 0.000346173
46 *1588:RESET_B *189:42 0.000845387
47 *1590:RESET_B *189:14 0.000180072
48 *25:10 *189:28 0.000266751
49 *47:20 *1520:B 0.00056318
50 *48:16 *189:72 8.4763e-05
51 *48:16 *189:80 0.00199322
52 *55:10 *1398:B2 0.000103715
53 *58:20 *1398:B2 0.000142167
54 *58:20 *189:42 0.00013035
55 *58:20 *189:53 0.000366971
56 *73:12 *1396:A 0.000188942
57 *84:26 *1398:B2 4.84895e-05
58 *85:10 *189:32 4.20544e-05
59 *85:10 *189:42 2.51343e-06
60 *87:8 *1396:A 5.49995e-05
61 *92:14 *189:32 0.000816664
62 *115:8 *189:28 0.00010613
63 *119:10 *1396:A 0.00144515
64 *119:10 *189:80 0.000403107
65 *129:66 *189:14 2.00842e-05
66 *144:14 *189:28 0.000125731
67 *170:12 *189:53 0.000190379
68 *170:14 *1398:B2 0.000548849
69 *170:14 *189:53 0.000742132
70 *179:28 *189:42 9.64513e-05
71 *180:143 *189:32 3.63775e-05
72 *181:24 *189:28 0.000642678
*RES
1 *1590:Q *189:14 45.8536 
2 *189:14 *189:28 31.8571 
3 *189:28 *189:32 43.2679 
4 *189:32 *189:42 32.2321 
5 *189:42 *1517:A1 11.0679 
6 *189:42 *189:53 24.6607 
7 *189:53 *1398:B2 33.2286 
8 *189:53 *189:72 16.9464 
9 *189:72 *189:80 29.9464 
10 *189:80 *1396:A 36.5857 
11 *189:80 *1520:B 19.2643 
12 *189:72 *1515:B 9.3 
13 *189:32 *1393:A 10.0321 
*END

*D_NET *190 0.0305705
*CONN
*I *1520:A I *D sky130_fd_sc_hd__or3_1
*I *1522:A I *D sky130_fd_sc_hd__or3_1
*I *1395:A I *D sky130_fd_sc_hd__nor2_2
*I *1394:A I *D sky130_fd_sc_hd__xnor2_1
*I *1517:D1 I *D sky130_fd_sc_hd__a2111o_1
*I *1515:A I *D sky130_fd_sc_hd__nor2_2
*I *1591:Q O *D sky130_fd_sc_hd__dfrtp_4
*CAP
1 *1520:A 0.000561378
2 *1522:A 3.57131e-05
3 *1395:A 0.000398536
4 *1394:A 0
5 *1517:D1 0.000897707
6 *1515:A 0.000233444
7 *1591:Q 0.000680505
8 *190:69 0.00117219
9 *190:67 0.00283799
10 *190:35 0.000968265
11 *190:31 0.00282888
12 *190:18 0.00220183
13 *190:14 0.00255199
14 *1395:A *211:28 0.0001212
15 *1515:A *215:12 0.000654177
16 *1515:A *220:10 0.000240202
17 *1517:D1 *1454:A 2.16719e-05
18 *1517:D1 *217:35 0.000585266
19 *1517:D1 *226:12 0.000275357
20 *1517:D1 *226:31 0.000221544
21 *1520:A *209:60 0.000355281
22 *190:14 *205:14 9.9403e-05
23 *190:31 *214:37 0.00112732
24 *190:31 *220:10 0.00138212
25 *190:35 *226:31 5.8697e-05
26 *190:67 *1487:A 0
27 *190:67 *213:33 0.000109994
28 *190:69 *1487:A 0
29 *190:69 *1487:C 2.69614e-05
30 *190:69 *1487:D 7.55747e-05
31 *190:69 *227:26 1.4684e-05
32 *1392:C *1520:A 8.6229e-06
33 *1394:B *190:35 0.000186765
34 *1399:B *190:69 0.000126416
35 *1452:C *190:14 0.000122523
36 *1470:A *190:69 0
37 *1491:A *1395:A 0.000404734
38 *1517:C1 *1517:D1 0.000721469
39 *1522:C *190:69 0.000328679
40 *1561:CLK *190:67 0.000532195
41 *1563:RESET_B *190:67 0.000940998
42 *1566:RESET_B *1520:A 0
43 *1569:RESET_B *190:31 0.000144708
44 *1569:RESET_B *190:67 2.20282e-05
45 *1588:RESET_B *1517:D1 0.00097461
46 *1588:RESET_B *190:35 0.000340849
47 *1589:RESET_B *190:14 0.00039475
48 *1589:RESET_B *190:18 0.000629819
49 *30:6 *1395:A 1.98839e-05
50 *44:26 *190:69 4.33002e-05
51 *55:20 *1520:A 0.000228508
52 *57:16 *190:35 5.33005e-05
53 *66:10 *190:14 1.03483e-05
54 *76:28 *190:31 0.000125427
55 *79:20 *1520:A 0.000121672
56 *83:12 *190:31 0.000182698
57 *85:31 *190:67 7.08599e-05
58 *85:31 *190:69 0.000160924
59 *88:34 *1517:D1 0.000538813
60 *90:14 *190:67 1.01912e-05
61 *90:14 *190:69 7.28057e-06
62 *92:20 *190:31 0.000138599
63 *92:20 *190:67 0.00012712
64 *93:51 *1515:A 0.000152804
65 *93:51 *190:31 0.00023123
66 *120:42 *1520:A 2.33986e-05
67 *123:12 *1395:A 0.000203675
68 *123:12 *190:69 2.39923e-05
69 *132:8 *1395:A 0.000265438
70 *141:10 *190:69 0
71 *162:24 *1517:D1 0.00013415
72 *175:18 *1515:A 0.00016328
73 *178:14 *1395:A 0
74 *178:14 *190:69 0
75 *179:28 *190:67 9.25014e-06
76 *179:132 *1395:A 8.6229e-06
77 *183:6 *190:18 0.000155669
78 *183:96 *1515:A 5.74309e-05
79 *183:96 *190:31 0.000138655
80 *185:41 *190:67 0.000276684
81 *188:158 *1515:A 0.000270257
*RES
1 *1591:Q *190:14 27.9964 
2 *190:14 *190:18 20.6429 
3 *190:18 *1515:A 23.2464 
4 *190:18 *190:31 23.5 
5 *190:31 *190:35 7.91071 
6 *190:35 *1517:D1 42.6929 
7 *190:35 *1394:A 9.3 
8 *190:31 *190:67 42.9732 
9 *190:67 *190:69 16.5179 
10 *190:69 *1395:A 24.2554 
11 *190:69 *1522:A 14.6125 
12 *190:14 *1520:A 38.2821 
*END

*D_NET *191 0.054841
*CONN
*I *1525:A I *D sky130_fd_sc_hd__buf_4
*I *1559:A I *D sky130_fd_sc_hd__inv_2
*I *1536:A I *D sky130_fd_sc_hd__clkbuf_8
*I *1547:A I *D sky130_fd_sc_hd__clkbuf_8
*I *1558:A I *D sky130_fd_sc_hd__inv_2
*I *1602:X O *D sky130_fd_sc_hd__clkbuf_4
*CAP
1 *1525:A 4.22083e-05
2 *1559:A 0.000235127
3 *1536:A 0.000196367
4 *1547:A 0.00081002
5 *1558:A 0
6 *1602:X 0.00054404
7 *191:86 0.00236989
8 *191:84 0.00416668
9 *191:72 0.00245893
10 *191:70 0.00177257
11 *191:43 0.00443344
12 *191:30 0.00632097
13 *191:8 0.00937456
14 *191:8 *1421:A 3.07555e-05
15 *191:8 *1421:B 0
16 *191:8 *216:18 0
17 *191:30 *1421:B 0
18 *191:30 *1509:A 0.000255321
19 *191:30 *194:22 0.000323506
20 *191:30 *200:100 0.000173789
21 *191:30 *211:18 0.000131778
22 *191:43 *203:88 6.42095e-05
23 *191:43 *206:8 0.000269422
24 *191:70 *1408:C 0.000310243
25 *191:70 *213:33 8.92708e-06
26 *191:72 *226:20 0
27 *1432:A *191:30 0.00023988
28 *1440:B *191:30 0.000131778
29 *1448:A *191:84 0.000113521
30 *1448:B *191:84 0.000147714
31 *1448:C *1525:A 0.000225988
32 *1461:B *191:43 5.52238e-05
33 *1474:D *1547:A 2.21751e-05
34 *1474:D *191:43 1.07719e-05
35 *1474:D *191:70 3.63281e-05
36 *1485:B1 *191:86 0
37 *1485:C1 *1559:A 1.12323e-05
38 *1485:C1 *191:84 1.20729e-05
39 *1485:C1 *191:86 0.000521418
40 *1492:B *191:84 6.90372e-06
41 *1505:C1 *191:30 0.000136649
42 *1510:B *191:86 0
43 *1553:A *1536:A 0.00044531
44 *1566:D *191:30 0
45 *1575:CLK *191:8 2.24646e-05
46 *1575:CLK *191:30 8.78763e-05
47 *1575:CLK *191:43 5.33005e-05
48 *1588:CLK *191:84 3.48305e-05
49 *1588:D *191:84 1.29901e-05
50 *1588:RESET_B *191:84 9.35114e-06
51 *29:8 *191:86 0.00448634
52 *30:10 *191:30 0.000749836
53 *34:18 *191:70 0.000169707
54 *45:28 *191:30 0.000310236
55 *50:18 *191:30 0.000383777
56 *51:10 *191:30 0.000112793
57 *54:18 *191:30 0
58 *58:20 *191:86 0.000581497
59 *67:10 *191:30 0.000267088
60 *68:10 *191:86 0.000802081
61 *72:10 *191:8 0
62 *79:8 *1559:A 0.000270116
63 *79:12 *191:86 0.000306808
64 *92:14 *191:72 0
65 *92:14 *191:84 0
66 *101:12 *191:70 0
67 *107:24 *191:8 3.91575e-05
68 *116:10 *191:84 0.000114109
69 *129:103 *191:43 0.000967923
70 *129:120 *191:70 0.000799966
71 *129:120 *191:72 0.00104959
72 *129:120 *191:84 0.000235871
73 *131:18 *191:84 8.02568e-05
74 *131:18 *191:86 7.47029e-06
75 *137:24 *191:84 0
76 *146:10 *191:70 0
77 *148:20 *1559:A 0.000205941
78 *156:25 *1525:A 0.000225988
79 *158:22 *191:30 0
80 *161:24 *191:30 0.00366627
81 *164:12 *191:30 0.000120387
82 *165:37 *191:30 0.000570449
83 *175:70 *191:70 0.000307132
84 *175:81 *191:70 0.000280101
85 *181:103 *1559:A 0.00022266
86 *181:107 *191:86 0
87 *184:108 *191:30 0.00010688
88 *185:35 *191:84 2.94709e-06
89 *186:10 *191:30 0.000135273
90 *186:72 *191:30 0.000191616
91 *186:74 *191:30 0.000206524
92 *187:14 *191:84 9.20399e-05
93 *187:117 *191:72 0
94 *187:138 *191:30 0.000141667
95 *188:105 *191:72 0
*RES
1 *1602:X *191:8 23.6393 
2 *191:8 *191:30 41.2794 
3 *191:30 *1558:A 9.3 
4 *191:8 *191:43 41.7321 
5 *191:43 *1547:A 18.4786 
6 *191:43 *191:70 43.3214 
7 *191:70 *191:72 14.0893 
8 *191:72 *191:84 31.7589 
9 *191:84 *191:86 64.9375 
10 *191:86 *1536:A 18.0321 
11 *191:84 *1559:A 21.1839 
12 *191:72 *1525:A 15.9786 
*END

*D_NET *192 0.00132432
*CONN
*I *1514:A1 I *D sky130_fd_sc_hd__o211a_1
*I *1601:X O *D sky130_fd_sc_hd__dlygate4sd3_1
*CAP
1 *1514:A1 0.000316528
2 *1601:X 0.000316528
3 *1514:A1 *1514:A2 0.000126439
4 *1514:A1 *217:12 5.52302e-05
5 *1514:A1 *217:14 0.000358971
6 *1490:C *1514:A1 0
7 *154:16 *1514:A1 0.000150625
*RES
1 *1601:X *1514:A1 33.3679 
*END

*D_NET *193 0.0165605
*CONN
*I *1603:A I *D sky130_fd_sc_hd__buf_2
*I *1592:X O *D sky130_fd_sc_hd__buf_1
*CAP
1 *1603:A 0.00205143
2 *1592:X 0.00120484
3 *193:26 0.00326443
4 *193:14 0.00241783
5 *1603:A *205:14 0.000701669
6 *193:14 *1592:A 0.000201741
7 *193:14 *213:81 0
8 *193:26 *1392:A 0.000121573
9 *193:26 *205:14 0.000345257
10 seg[1] *1603:A 9.87983e-06
11 *1490:C *193:26 3.93986e-05
12 *1498:C1 *193:14 0.000353925
13 *1521:A *193:26 0.000304394
14 *1562:D *193:26 0.000730745
15 *46:16 *193:26 0.00271367
16 *46:24 *193:14 0.00010001
17 *95:16 *193:14 1.6806e-05
18 *105:52 *193:14 0
19 *122:8 *193:26 0.00110777
20 *132:16 *1603:A 0
21 *170:45 *193:26 0.000875145
*RES
1 *1592:X *193:14 38.1214 
2 *193:14 *193:26 49.9286 
3 *193:26 *1603:A 49.8 
*END

*D_NET *194 0.0182664
*CONN
*I *1604:A I *D sky130_fd_sc_hd__buf_2
*I *1518:Y O *D sky130_fd_sc_hd__nor2_1
*CAP
1 *1604:A 0.00124683
2 *1518:Y 9.99135e-05
3 *194:22 0.00237709
4 *194:14 0.00229445
5 *194:10 0.0012641
6 *194:10 *213:33 6.93944e-05
7 *194:14 *225:14 0.00207674
8 *1413:C *194:14 0.000535211
9 *1521:A *194:22 0.000619258
10 *1562:CLK *1604:A 3.32631e-05
11 *23:16 *194:10 0
12 *45:28 *194:14 2.59355e-05
13 *45:28 *194:22 0.00231489
14 *50:18 *194:22 0.00145456
15 *85:10 *194:14 2.80742e-05
16 *92:14 *194:14 0.000132939
17 *115:30 *194:22 9.37778e-05
18 *164:12 *194:22 0.000154441
19 *176:41 *194:14 0.000609254
20 *184:8 *194:22 0.000415047
21 *184:10 *194:22 0.000352528
22 *184:12 *194:22 0.000163526
23 *184:14 *194:22 4.35131e-05
24 *184:108 *194:22 0.000927296
25 *189:32 *194:14 0.000610851
26 *191:30 *194:22 0.000323506
*RES
1 *1518:Y *194:10 20.2464 
2 *194:10 *194:14 37.8929 
3 *194:14 *194:22 49.6071 
4 *194:22 *1604:A 23.3 
*END

*D_NET *195 0.0148759
*CONN
*I *1605:A I *D sky130_fd_sc_hd__buf_2
*I *1519:Y O *D sky130_fd_sc_hd__a21oi_1
*CAP
1 *1605:A 0.000171106
2 *1519:Y 0.000773906
3 *195:18 0.00123793
4 *195:16 0.00184073
5 *195:16 *201:72 0.000169483
6 *1540:A *195:16 5.50052e-05
7 *56:20 *195:16 0.000171143
8 *61:8 *195:16 0.000600059
9 *61:10 *195:18 8.49977e-05
10 *62:10 *195:18 0.0046084
11 *99:20 *195:16 0.000310021
12 *132:16 *195:18 0.00442157
13 *168:52 *195:16 0.000431589
*RES
1 *1519:Y *195:16 38.4429 
2 *195:16 *195:18 58.1071 
3 *195:18 *1605:A 15.9786 
*END

*D_NET *196 0.0176941
*CONN
*I *1606:A I *D sky130_fd_sc_hd__buf_2
*I *1592:A I *D sky130_fd_sc_hd__buf_1
*I *1517:X O *D sky130_fd_sc_hd__a2111o_1
*CAP
1 *1606:A 0.00103496
2 *1592:A 0.00103597
3 *1517:X 0
4 *196:43 0.00339972
5 *196:31 0.00333941
6 *196:4 0.00201062
7 *1592:A *227:97 0.000885625
8 *1606:A *210:14 7.96948e-05
9 *1606:A *211:6 0.000809101
10 *1606:A *211:85 0.000175892
11 *196:31 *216:41 0.000268767
12 *196:43 *1451:A 9.15842e-06
13 *196:43 *1468:A 7.8195e-05
14 *196:43 *205:61 6.49357e-05
15 *196:43 *210:14 0.000152823
16 *196:43 *226:31 0.000250622
17 *1517:A2 *196:31 0.000180777
18 *1533:A *1592:A 0.000465961
19 *1569:RESET_B *196:31 5.74499e-06
20 *1569:RESET_B *196:43 0.000258959
21 *1577:RESET_B *196:43 4.038e-06
22 *1588:D *1592:A 0.000454892
23 *42:10 *196:43 6.19181e-05
24 *46:24 *196:31 0.00087833
25 *58:20 *1592:A 0.000425169
26 *66:10 *196:43 9.79679e-05
27 *70:10 *1592:A 0
28 *70:10 *196:31 0.000137005
29 *76:28 *196:43 0.000640507
30 *98:28 *1606:A 5.50839e-05
31 *120:30 *196:43 1.83136e-05
32 *142:28 *196:43 0.000203039
33 *189:42 *1592:A 9.15842e-06
34 *193:14 *1592:A 0.000201741
*RES
1 *1517:X *196:4 9.3 
2 *196:4 *1592:A 45.9607 
3 *196:4 *196:31 23.8214 
4 *196:31 *196:43 49.0536 
5 *196:43 *1606:A 27.4964 
*END

*D_NET *197 0.011307
*CONN
*I *1607:A I *D sky130_fd_sc_hd__buf_2
*I *1521:X O *D sky130_fd_sc_hd__buf_1
*CAP
1 *1607:A 0
2 *1521:X 0.00102475
3 *197:10 0.000980634
4 *197:8 0.00200538
5 *197:10 *221:12 0
6 *197:10 *221:45 1.18847e-05
7 *1551:A *197:10 0.000949871
8 *1589:RESET_B *197:8 0.000194088
9 *35:18 *197:10 0.00361338
10 *37:10 *197:8 0.000474965
11 *57:12 *197:10 0.00173513
12 *99:10 *197:10 7.29535e-05
13 *181:51 *197:10 5.73473e-05
14 *181:57 *197:10 0.000186611
*RES
1 *1521:X *197:8 26.2464 
2 *197:8 *197:10 45.6607 
3 *197:10 *1607:A 13.8 
*END

*D_NET *198 0.00173367
*CONN
*I *1608:A I *D sky130_fd_sc_hd__buf_2
*I *1523:X O *D sky130_fd_sc_hd__clkbuf_1
*CAP
1 *1608:A 0.000231324
2 *1523:X 0.000231324
3 *1575:D *1608:A 0.000719028
4 *35:16 *1608:A 0.00055199
5 *62:10 *1608:A 0
*RES
1 *1523:X *1608:A 36.8321 
*END

*D_NET *199 0.0156235
*CONN
*I *1609:A I *D sky130_fd_sc_hd__buf_2
*I *231:DIODE I *D sky130_fd_sc_hd__diode_2
*I *1524:Y O *D sky130_fd_sc_hd__a21boi_2
*CAP
1 *1609:A 0.00013752
2 *231:DIODE 0
3 *1524:Y 0.00138033
4 *199:36 0.00142681
5 *199:28 0.0031988
6 *199:16 0.00328985
7 *199:28 *213:22 0.00178094
8 *199:28 *216:18 0.000818392
9 *199:36 *1421:A 0.000272371
10 *199:36 *1421:B 5.52238e-05
11 *199:36 *216:18 0.000580362
12 *1457:A2 *199:36 2.55889e-05
13 *1504:A *199:28 5.33005e-05
14 *1504:B *199:28 2.59355e-05
15 *1524:A1 *199:16 5.45307e-05
16 *1537:A *199:36 9.83388e-05
17 *58:20 *199:28 0.00022616
18 *62:8 *199:36 0.000237063
19 *81:12 *199:16 0.00125328
20 *185:16 *199:28 0.000708692
*RES
1 *1524:Y *199:16 47.8089 
2 *199:16 *199:28 44.7857 
3 *199:28 *199:36 35.6161 
4 *199:36 *231:DIODE 9.3 
5 *199:36 *1609:A 11.6929 
*END

*D_NET *200 0.0427843
*CONN
*I *1422:B I *D sky130_fd_sc_hd__or2_1
*I *1425:C I *D sky130_fd_sc_hd__nand3_1
*I *1421:B I *D sky130_fd_sc_hd__nand2_1
*I *1420:A I *D sky130_fd_sc_hd__nor2_1
*I *1426:A2 I *D sky130_fd_sc_hd__a21o_1
*I *1407:D I *D sky130_fd_sc_hd__and4_2
*I *1429:A3 I *D sky130_fd_sc_hd__a31o_1
*I *1560:Q O *D sky130_fd_sc_hd__dfrtp_4
*CAP
1 *1422:B 5.87448e-05
2 *1425:C 0.00122636
3 *1421:B 0.000689017
4 *1420:A 0
5 *1426:A2 0.000163919
6 *1407:D 0.000641579
7 *1429:A3 0
8 *1560:Q 0
9 *200:129 0.00166859
10 *200:100 0.00193789
11 *200:90 0.00086539
12 *200:88 0.00117482
13 *200:61 0.00130125
14 *200:57 0.00153577
15 *200:34 0.00268054
16 *200:10 0.00220856
17 *200:4 0.00267426
18 *1407:D *1407:C 0.00131829
19 *1421:B *1421:A 0.000364472
20 *1422:B *1422:A 0.000126771
21 *1425:C *1408:C 0.00128872
22 *1425:C *1425:B 0.00279089
23 *1425:C *1440:A 0.000327906
24 *1426:A2 *221:12 0.000124749
25 *200:10 *1406:A2 2.97386e-05
26 *200:10 *1406:B1 0.000113426
27 *200:10 *1486:A2 2.23393e-05
28 *200:10 *208:38 0.000485898
29 *200:10 *210:40 0.000559145
30 *200:57 *1426:A1 0
31 *200:57 *211:85 0
32 *200:57 *211:87 0
33 *200:57 *221:12 0.00248349
34 *200:88 *202:49 0.00016252
35 *200:88 *221:8 0.000183477
36 *200:88 *221:45 0.000538481
37 *200:88 *221:74 0.000629797
38 *200:100 *1422:A 0.000431186
39 *200:100 *211:18 0.000135028
40 *200:129 *1440:A 0.00130626
41 *1397:A *200:129 1.98839e-05
42 *1420:B *200:61 9.41642e-05
43 *1440:B *1421:B 1.03904e-05
44 *1440:B *200:100 0.00163732
45 *1440:B *200:129 2.02794e-05
46 *1459:C *1407:D 9.58126e-05
47 *1505:B2 *1421:B 0.00019177
48 *1530:A *200:100 0.000766014
49 *1551:A *200:88 0.000151938
50 *1560:RESET_B *200:10 0.000317503
51 *1560:RESET_B *200:34 0.000159366
52 *1575:CLK *1421:B 0
53 *1579:RESET_B *200:57 0
54 *1579:RESET_B *200:88 0
55 *20:8 *200:61 1.98839e-05
56 *20:14 *200:34 0.000271439
57 *21:6 *200:10 1.63801e-05
58 *21:6 *200:34 8.65681e-05
59 *47:12 *1407:D 5.51219e-05
60 *47:174 *1407:D 1.32056e-05
61 *50:10 *200:129 5.51649e-05
62 *77:12 *200:57 0.000766856
63 *77:12 *200:88 8.25843e-06
64 *88:8 *200:129 0.000391362
65 *93:51 *1407:D 0.000573345
66 *95:123 *1407:D 0
67 *98:28 *200:88 0.000287926
68 *129:64 *200:57 2.79421e-05
69 *129:64 *200:88 0.00113552
70 *129:66 *200:88 0.000697191
71 *134:8 *200:129 0.000812249
72 *165:37 *1421:B 0.000771396
73 *165:37 *200:100 0.000588773
74 *180:14 *1407:D 2.40513e-05
75 *180:14 *200:10 0.000105966
76 *181:57 *200:88 1.62237e-05
77 *186:10 *200:129 2.50593e-05
78 *189:14 *200:100 9.17062e-05
79 *191:8 *1421:B 0
80 *191:30 *1421:B 0
81 *191:30 *200:100 0.000173789
82 *199:36 *1421:B 5.52238e-05
*RES
1 *1560:Q *200:4 9.3 
2 *200:4 *200:10 34.5893 
3 *200:10 *1429:A3 13.8 
4 *200:10 *1407:D 31.8714 
5 *200:4 *200:34 19.0179 
6 *200:34 *1426:A2 16.8 
7 *200:34 *200:57 49.6071 
8 *200:57 *200:61 2.19643 
9 *200:61 *1420:A 9.3 
10 *200:61 *200:88 47.75 
11 *200:88 *200:90 4.5 
12 *200:90 *200:100 33.2768 
13 *200:100 *1421:B 31.6125 
14 *200:100 *200:129 28.8661 
15 *200:129 *1425:C 42.2821 
16 *200:90 *1422:B 10.6571 
*END

*D_NET *201 0.0452157
*CONN
*I *1454:A I *D sky130_fd_sc_hd__nand2_1
*I *1453:A I *D sky130_fd_sc_hd__or2_1
*I *1457:A1 I *D sky130_fd_sc_hd__a21oi_2
*I *1474:B I *D sky130_fd_sc_hd__and4_1
*I *1458:B I *D sky130_fd_sc_hd__and3_2
*I *1411:B I *D sky130_fd_sc_hd__or4_2
*I *1570:Q O *D sky130_fd_sc_hd__dfrtp_4
*CAP
1 *1454:A 0.000573798
2 *1453:A 9.7026e-05
3 *1457:A1 0.00078457
4 *1474:B 0
5 *1458:B 6.69265e-05
6 *1411:B 0.000398874
7 *1570:Q 0.00129833
8 *201:76 0.00303083
9 *201:72 0.00427481
10 *201:61 0.00188634
11 *201:46 0.00228971
12 *201:38 0.00141995
13 *201:30 0.00277588
14 *201:14 0.00385592
15 *1411:B *1411:C 0.000106848
16 *1411:B *202:20 0.000306317
17 *1454:A *1503:A 0.000772646
18 *1454:A *215:14 0.000126446
19 *1454:A *217:29 0.000302913
20 *1454:A *217:35 2.68045e-05
21 *1457:A1 *1457:B1 0.000182598
22 *201:14 *1406:A1 2.79421e-05
23 *201:14 *1406:A2 1.86816e-05
24 *201:14 *215:14 0.000755792
25 *201:14 *217:29 0.000309994
26 *201:30 *204:10 8.6229e-06
27 *201:30 *204:21 0.000139217
28 *201:30 *210:36 2.51343e-06
29 *201:30 *218:20 7.66543e-05
30 *201:30 *227:89 0.00020024
31 *201:30 *227:97 0.000213479
32 *201:38 *1412:D 0.000630881
33 *201:61 *211:12 0.000919436
34 *201:72 *202:66 0
35 *1416:B1 *201:30 0.0007027
36 *1427:A *201:14 0.000554615
37 *1457:A2 *1457:A1 0.000402303
38 *1474:C *201:76 0.00322811
39 *1494:A *201:14 3.24989e-05
40 *1501:A *201:46 0
41 *1505:A1 *201:72 0.00036518
42 *1505:A2 *201:76 0.000206204
43 *1505:B2 *201:76 1.39726e-05
44 *1505:C1 *201:76 0.000101601
45 *1517:D1 *1454:A 2.16719e-05
46 *1519:B1 *201:76 5.48121e-05
47 *1540:A *201:72 0
48 *1541:A *1457:A1 2.82057e-05
49 *1568:RESET_B *201:61 0.000406624
50 *1570:CLK *201:14 0.000150232
51 *1572:CLK *201:46 0
52 *1572:RESET_B *201:46 0.000174682
53 *1572:RESET_B *201:61 0.000182909
54 *20:14 *201:46 0.000124875
55 *25:10 *201:46 0.000910557
56 *25:10 *201:61 0.00150482
57 *56:20 *1457:A1 0.00045575
58 *56:20 *201:61 0.000601238
59 *56:20 *201:72 0.000344797
60 *72:10 *201:61 0.000222252
61 *88:8 *1458:B 9.84475e-05
62 *88:34 *1454:A 0.00091558
63 *94:30 *201:38 0.000177815
64 *95:32 *201:38 2.22618e-05
65 *96:33 *201:30 0.00068412
66 *97:44 *1454:A 2.14001e-05
67 *105:12 *1454:A 0.000703193
68 *105:52 *201:14 0
69 *105:56 *201:14 2.06112e-05
70 *105:77 *201:14 1.19021e-05
71 *129:35 *1453:A 8.11174e-05
72 *129:35 *201:38 0.000665374
73 *129:97 *1457:A1 0
74 *130:22 *1453:A 5.49544e-05
75 *143:41 *201:38 0.000119738
76 *156:10 *201:38 0.000121573
77 *162:24 *1454:A 0.000182348
78 *162:24 *201:14 0.000121549
79 *168:52 *201:76 6.8377e-06
80 *183:16 *201:14 0.000790611
81 *183:22 *201:14 0.000874395
82 *184:112 *201:46 0
83 *186:27 *201:76 0.000308538
84 *187:48 *201:30 0.000392246
85 *189:14 *201:61 0
86 *189:14 *201:72 0
87 *195:16 *201:72 0.000169483
*RES
1 *1570:Q *201:14 49.0857 
2 *201:14 *201:30 49.5179 
3 *201:30 *201:38 25.9643 
4 *201:38 *201:46 18.6429 
5 *201:46 *1411:B 18.8536 
6 *201:46 *201:61 40.0536 
7 *201:61 *1458:B 14.7464 
8 *201:61 *201:72 11.3571 
9 *201:72 *201:76 46.9286 
10 *201:76 *1474:B 9.3 
11 *201:72 *1457:A1 31.5679 
12 *201:38 *1453:A 11.0679 
13 *201:14 *1454:A 35.175 
*END

*D_NET *202 0.0333989
*CONN
*I *1457:B1 I *D sky130_fd_sc_hd__a21oi_2
*I *1474:A I *D sky130_fd_sc_hd__and4_1
*I *1458:A I *D sky130_fd_sc_hd__and3_2
*I *1411:A I *D sky130_fd_sc_hd__or4_2
*I *1571:Q O *D sky130_fd_sc_hd__dfrtp_4
*CAP
1 *1457:B1 0.000679532
2 *1474:A 0.000730822
3 *1458:A 3.08599e-05
4 *1411:A 0.000308277
5 *1571:Q 0.00147402
6 *202:74 0.00142727
7 *202:66 0.00170543
8 *202:49 0.00352305
9 *202:20 0.00410622
10 *202:14 0.00210921
11 *202:14 *203:18 0.000190407
12 *202:14 *206:26 9.5248e-05
13 *202:14 *208:14 4.35597e-05
14 *202:14 *227:51 0.000178847
15 *202:20 *1411:C 0.000659761
16 *202:49 *221:74 0.000314044
17 *1397:A *1458:A 0.000139202
18 *1411:B *202:20 0.000306317
19 *1457:A1 *1457:B1 0.000182598
20 *1457:A2 *1457:B1 0.000577069
21 *1458:C *1458:A 0.000139202
22 *1461:B *202:74 0.000120978
23 *1505:A1 *202:66 0
24 *1505:C1 *1474:A 0.000249084
25 *1508:A *1474:A 0.000388909
26 *1519:B1 *1474:A 0.00117559
27 *1540:A *1457:B1 0.00055422
28 *1540:A *202:66 5.36422e-05
29 *1564:RESET_B *202:49 0
30 *1577:D *202:20 0.00055411
31 *1577:RESET_B *202:14 8.00569e-05
32 *1579:RESET_B *202:49 0
33 *1580:CLK *202:74 0.000122501
34 *1580:D *202:74 6.86385e-05
35 *36:12 *1474:A 0.000400253
36 *97:22 *202:14 0.000178874
37 *98:28 *1411:A 9.58181e-05
38 *99:20 *1457:B1 8.33813e-05
39 *99:20 *202:74 0.00162475
40 *104:22 *202:14 0.00181661
41 *129:64 *202:20 9.97164e-05
42 *129:64 *202:49 0.000158558
43 *129:66 *202:49 0.000979892
44 *129:66 *202:66 3.14003e-05
45 *129:97 *1457:B1 0.000201552
46 *129:97 *202:66 0.000454991
47 *144:14 *202:14 1.62193e-05
48 *155:22 *202:14 0.000137983
49 *158:22 *202:14 0.000340513
50 *168:52 *1474:A 0.00198551
51 *175:89 *202:74 0.000990492
52 *181:51 *1411:A 0.000134334
53 *189:14 *202:49 0.00110349
54 *189:14 *202:66 0.000113331
55 *200:88 *202:49 0.00016252
56 *201:72 *202:66 0
*RES
1 *1571:Q *202:14 48.0679 
2 *202:14 *202:20 17.875 
3 *202:20 *1411:A 17.9429 
4 *202:20 *202:49 32.7043 
5 *202:49 *1458:A 15.1571 
6 *202:49 *202:66 12.5714 
7 *202:66 *202:74 28.4286 
8 *202:74 *1474:A 35.7107 
9 *202:66 *1457:B1 35.7643 
*END

*D_NET *203 0.0233185
*CONN
*I *1461:A I *D sky130_fd_sc_hd__nand2_1
*I *1465:A I *D sky130_fd_sc_hd__nand3_1
*I *1460:A I *D sky130_fd_sc_hd__or2_1
*I *1464:A1 I *D sky130_fd_sc_hd__a21o_1
*I *1410:C I *D sky130_fd_sc_hd__and4_1
*I *1572:Q O *D sky130_fd_sc_hd__dfrtp_2
*CAP
1 *1461:A 0
2 *1465:A 0
3 *1460:A 7.73304e-05
4 *1464:A1 0.00108485
5 *1410:C 0
6 *1572:Q 0.00139964
7 *203:88 0.00112025
8 *203:45 0.0014834
9 *203:37 0.000554137
10 *203:31 0.00183647
11 *203:18 0.00188293
12 *1460:A *224:12 7.05143e-06
13 *1464:A1 *1464:B1 0.000557128
14 *1464:A1 *224:12 1.7897e-05
15 *1464:A1 *225:16 6.82922e-05
16 *1464:A1 *225:30 7.05982e-05
17 *1464:A1 *225:71 9.1881e-05
18 *203:18 *1499:A 0.000307059
19 *203:18 *206:26 0.000985303
20 *203:37 *1465:B 4.33899e-05
21 *203:45 *1465:B 5.49544e-05
22 *203:45 *1483:A 0.000178847
23 *203:45 *224:12 1.55238e-05
24 *203:45 *224:18 0.000161858
25 *203:45 *225:71 0.000209923
26 *1461:B *203:88 0.000905818
27 *1488:B *203:88 0.000149039
28 *1499:B *203:18 0.000219366
29 *1502:A *1464:A1 0.000114352
30 *1563:CLK *203:18 0.000222345
31 *1563:RESET_B *203:31 6.26918e-05
32 *1572:D *203:18 0.000178425
33 *1584:CLK *203:88 7.79781e-06
34 *23:32 *203:18 1.8911e-05
35 *42:10 *203:88 0.00145261
36 *47:56 *1464:A1 6.40426e-05
37 *47:64 *1464:A1 0.000468677
38 *54:18 *203:18 0.000187873
39 *54:18 *203:31 0.00012384
40 *66:10 *203:88 6.8646e-06
41 *72:8 *203:18 4.4523e-05
42 *82:12 *203:31 0.000272069
43 *88:24 *203:31 4.87953e-05
44 *88:24 *203:37 0.000161032
45 *88:24 *203:45 0.000854973
46 *106:14 *1464:A1 0.000193125
47 *106:55 *1464:A1 0.000425517
48 *125:12 *1464:A1 2.91888e-05
49 *129:103 *203:88 9.7659e-05
50 *134:14 *203:37 0.000262082
51 *134:14 *203:88 0.00161518
52 *134:26 *203:37 7.05721e-05
53 *134:26 *203:45 0.00031947
54 *135:14 *1464:A1 0.00174001
55 *144:14 *203:18 0.000268889
56 *144:14 *203:31 0.000187873
57 *155:22 *1460:A 6.05161e-06
58 *164:12 *203:18 2.59355e-05
59 *181:24 *1460:A 4.96113e-05
60 *191:43 *203:88 6.42095e-05
61 *202:14 *203:18 0.000190407
*RES
1 *1572:Q *203:18 41.7643 
2 *203:18 *1410:C 13.8 
3 *203:18 *203:31 15.125 
4 *203:31 *203:37 5.19643 
5 *203:37 *203:45 16.0804 
6 *203:45 *1464:A1 42.6125 
7 *203:45 *1460:A 15.4518 
8 *203:37 *1465:A 9.3 
9 *203:31 *203:88 46.5893 
10 *203:88 *1461:A 9.3 
*END

*D_NET *204 0.0130903
*CONN
*I *1410:D I *D sky130_fd_sc_hd__and4_1
*I *1465:B I *D sky130_fd_sc_hd__nand3_1
*I *1464:B1 I *D sky130_fd_sc_hd__a21o_1
*I *1412:B I *D sky130_fd_sc_hd__and4b_1
*I *1573:Q O *D sky130_fd_sc_hd__dfrtp_1
*CAP
1 *1410:D 0.00063773
2 *1465:B 0.000287563
3 *1464:B1 0.00039677
4 *1412:B 0.000120434
5 *1573:Q 0.000222873
6 *204:38 0.00188933
7 *204:21 0.00152205
8 *204:10 0.000504544
9 *1410:D *1410:B 7.28908e-05
10 *1410:D *206:26 1.32056e-05
11 *1412:B *1412:C 5.49544e-05
12 *1412:B *1412:D 0.000106922
13 *1412:B *210:36 2.49678e-05
14 *1464:B1 *209:70 9.90367e-05
15 *204:10 *210:36 0.000251183
16 *204:10 *218:20 1.36765e-05
17 *204:10 *223:35 0.000119588
18 *204:21 *218:20 7.46081e-05
19 *204:21 *223:35 1.01241e-05
20 *204:38 *209:70 0.000170063
21 *204:38 *218:20 4.98055e-06
22 *204:38 *223:35 0.000317223
23 *1447:B *204:38 0.00108672
24 *1464:A1 *1464:B1 0.000557128
25 *1484:A3 *1464:B1 0.00045482
26 *1573:RESET_B *204:10 5.52302e-05
27 *31:12 *204:38 2.39876e-05
28 *65:24 *1410:D 0.000594034
29 *65:24 *204:38 0.000517093
30 *80:16 *204:10 1.67662e-05
31 *100:10 *204:21 0.000354637
32 *100:10 *204:38 0.00150082
33 *134:26 *1465:B 9.77118e-05
34 *134:40 *1464:B1 9.41642e-05
35 *141:10 *1465:B 0.000479727
36 *187:69 *204:10 9.65217e-05
37 *201:30 *204:10 8.6229e-06
38 *201:30 *204:21 0.000139217
39 *203:37 *1465:B 4.33899e-05
40 *203:45 *1465:B 5.49544e-05
*RES
1 *1573:Q *204:10 19.0143 
2 *204:10 *1412:B 15.9786 
3 *204:10 *204:21 4.98214 
4 *204:21 *1464:B1 23.8 
5 *204:21 *204:38 29.4107 
6 *204:38 *1465:B 25.4429 
7 *204:38 *1410:D 17.6393 
*END

*D_NET *205 0.0160491
*CONN
*I *1410:B I *D sky130_fd_sc_hd__and4_1
*I *1468:A I *D sky130_fd_sc_hd__inv_2
*I *1412:C I *D sky130_fd_sc_hd__and4b_1
*I *1574:Q O *D sky130_fd_sc_hd__dfrtp_1
*CAP
1 *1410:B 0.000772352
2 *1468:A 2.5252e-05
3 *1412:C 7.31395e-05
4 *1574:Q 0.00135677
5 *205:61 0.00175806
6 *205:30 0.00166238
7 *205:14 0.00198555
8 *1410:B *1438:A 0.000363733
9 *1410:B *206:26 5.45614e-05
10 *1412:C *1412:D 2.12005e-05
11 *205:30 *1412:A_N 0.000111532
12 *205:30 *1412:D 0.000182322
13 *205:30 *1451:B 0
14 *205:30 *210:22 4.30188e-05
15 *205:61 *1451:B 0
16 *205:61 *208:14 1.01912e-05
17 *205:61 *208:18 1.01912e-05
18 *205:61 *208:32 0.000137485
19 *205:61 *210:22 8.23706e-05
20 *1410:D *1410:B 7.28908e-05
21 *1412:B *1412:C 5.49544e-05
22 *1452:C *205:14 6.38485e-05
23 *1462:B *205:30 0.000225192
24 *1521:A *205:14 2.87555e-06
25 *1539:A *1410:B 4.21308e-05
26 *1574:CLK *205:14 0.000566251
27 *1574:D *205:14 6.82569e-05
28 *1574:RESET_B *205:14 7.70134e-05
29 *1603:A *205:14 0.000701669
30 *47:20 *205:14 9.40126e-05
31 *47:33 *205:14 9.58593e-05
32 *65:24 *1410:B 0.000197894
33 *66:10 *205:14 0.000651458
34 *66:10 *205:61 0.000724382
35 *76:20 *1410:B 4.36436e-05
36 *76:28 *1468:A 0.000141729
37 *76:28 *205:61 5.50052e-05
38 *94:30 *205:30 6.81704e-05
39 *95:32 *205:30 0.000135028
40 *114:24 *205:14 0.000379444
41 *120:42 *205:61 7.48679e-06
42 *127:24 *205:61 5.30639e-05
43 *136:24 *205:61 0.000169655
44 *141:10 *1410:B 0
45 *143:41 *1410:B 0
46 *143:41 *205:30 0.000121083
47 *143:41 *205:61 5.08737e-05
48 *156:10 *1410:B 0.000168316
49 *156:10 *205:30 0.000373052
50 *156:10 *205:61 0.000724382
51 *163:56 *205:61 0.000351112
52 *180:56 *1410:B 0.000330435
53 *190:14 *205:14 9.9403e-05
54 *193:26 *205:14 0.000345257
55 *196:43 *1468:A 7.8195e-05
56 *196:43 *205:61 6.49357e-05
*RES
1 *1574:Q *205:14 45.8893 
2 *205:14 *205:30 31.1429 
3 *205:30 *1412:C 14.7464 
4 *205:30 *205:61 44.1964 
5 *205:61 *1468:A 10.6571 
6 *205:61 *1410:B 35.3714 
*END

*D_NET *206 0.0223222
*CONN
*I *1410:A I *D sky130_fd_sc_hd__and4_1
*I *1412:D I *D sky130_fd_sc_hd__and4b_1
*I *1473:A I *D sky130_fd_sc_hd__inv_2
*I *1575:Q O *D sky130_fd_sc_hd__dfrtp_2
*CAP
1 *1410:A 0
2 *1412:D 0.000870334
3 *1473:A 0
4 *1575:Q 0.00108919
5 *206:40 0.000983602
6 *206:26 0.00271582
7 *206:14 0.00225282
8 *206:8 0.00248013
9 *1412:D *1412:A_N 2.87593e-05
10 *1412:D *210:36 1.91113e-05
11 *206:14 *1438:A 2.47833e-05
12 *206:26 *1416:C1 0.000341587
13 *206:26 *1438:A 2.32517e-05
14 *230:DIODE *206:40 9.60875e-05
15 *1410:B *206:26 5.45614e-05
16 *1410:D *206:26 1.32056e-05
17 *1412:B *1412:D 0.000106922
18 *1412:C *1412:D 2.12005e-05
19 *1451:C *206:40 7.40536e-05
20 *1452:B *206:40 2.11419e-05
21 *1452:C *206:40 0.000219582
22 *1471:A *206:40 0.000180501
23 *1490:C *206:26 8.90091e-05
24 *1490:C *206:40 0.000236175
25 *1511:B *206:40 0.000142856
26 *1523:A *206:8 2.89114e-05
27 *1560:RESET_B *206:40 0.000144741
28 *1566:CLK *206:40 0.000168829
29 *1575:CLK *206:8 0.000209238
30 *1575:CLK *206:14 0
31 *1575:D *206:8 0.000220093
32 *1580:D *206:14 0.00103345
33 *1583:RESET_B *206:40 0.000282426
34 *1595:A *206:40 3.42098e-05
35 *40:12 *206:40 0.000248131
36 *44:26 *206:40 6.72944e-05
37 *45:18 *206:40 6.55123e-05
38 *47:33 *206:26 0.000120724
39 *47:33 *206:40 0.000233746
40 *50:10 *206:14 0.000310681
41 *54:18 *206:14 0.000134
42 *54:18 *206:26 0.000110514
43 *82:12 *206:26 0.000523941
44 *84:18 *206:40 0.000230475
45 *94:30 *1412:D 0.000109588
46 *98:37 *206:14 0
47 *115:14 *206:14 0.000412333
48 *115:87 *206:14 0.00152559
49 *129:103 *206:8 1.11474e-05
50 *130:22 *206:26 0.000432895
51 *136:24 *206:40 0.000121503
52 *142:28 *206:40 1.5424e-05
53 *143:41 *206:40 0.000137983
54 *144:14 *206:14 0.000323749
55 *144:14 *206:26 9.11365e-06
56 *145:8 *206:40 2.44318e-05
57 *158:22 *206:26 0.000385821
58 *171:12 *206:40 0.000273857
59 *186:21 *206:14 0
60 *189:28 *206:14 0.00012401
61 *191:43 *206:8 0.000269422
62 *201:38 *1412:D 0.000630881
63 *202:14 *206:26 9.5248e-05
64 *203:18 *206:26 0.000985303
65 *205:30 *1412:D 0.000182322
*RES
1 *1575:Q *206:8 27.8893 
2 *206:8 *206:14 45.6429 
3 *206:14 *206:26 31.1607 
4 *206:26 *206:40 41.2857 
5 *206:40 *1473:A 9.3 
6 *206:26 *1412:D 27.4652 
7 *206:14 *1410:A 9.3 
*END

*D_NET *207 0.0348152
*CONN
*I *1487:D I *D sky130_fd_sc_hd__and4_1
*I *1413:B I *D sky130_fd_sc_hd__and4b_1
*I *1478:A I *D sky130_fd_sc_hd__nand2_1
*I *1484:A2 I *D sky130_fd_sc_hd__a31o_1
*I *1477:A I *D sky130_fd_sc_hd__or2_1
*I *1486:A3 I *D sky130_fd_sc_hd__a41o_1
*I *1576:Q O *D sky130_fd_sc_hd__dfrtp_4
*CAP
1 *1487:D 0.00144515
2 *1413:B 0
3 *1478:A 9.52301e-05
4 *1484:A2 0
5 *1477:A 0.000802777
6 *1486:A3 0.00116985
7 *1576:Q 0.0010811
8 *207:122 0.00250433
9 *207:89 0.00120291
10 *207:80 0.0012102
11 *207:30 0.00313795
12 *207:20 0.00310218
13 *207:14 0.00185625
14 *1486:A3 *209:31 0.000122159
15 *1487:D *1413:D 0.000808995
16 *207:20 *226:20 0.000503551
17 *207:30 *212:71 0
18 *207:30 *217:29 0.00226358
19 *207:80 *1484:B1 0.000351808
20 *207:80 *208:32 1.00733e-05
21 *207:80 *209:60 3.17148e-05
22 *207:80 *209:70 5.33005e-05
23 *207:80 *210:22 5.41797e-05
24 *207:80 *219:49 1.18064e-05
25 *207:89 *226:20 4.22135e-06
26 *207:122 *1413:D 5.49544e-05
27 *207:122 *213:33 0.000442254
28 *207:122 *226:20 2.80951e-05
29 an[2] *1486:A3 5.52302e-05
30 *1428:A *1486:A3 0.000452597
31 *1428:A *207:30 0.000265024
32 *1430:A_N *1486:A3 0.000402594
33 *1430:B *1486:A3 3.01817e-05
34 *1430:C *1486:A3 5.49489e-05
35 *1437:A2 *1486:A3 0.000111386
36 *1477:B *1477:A 0.00109598
37 *1478:B *1478:A 5.33005e-05
38 *1484:A3 *207:80 0.000192555
39 *1486:A4 *1486:A3 5.65955e-05
40 *1494:C *207:30 0.000249588
41 *1516:C *207:20 0
42 *1517:C1 *207:20 0.000234759
43 *1576:D *1478:A 0.000223141
44 *1576:RESET_B *1478:A 5.60672e-05
45 *1578:CLK *1486:A3 0.000192282
46 *1578:RESET_B *1486:A3 0.000136182
47 *1588:D *207:14 9.60337e-06
48 *23:16 *207:122 0
49 *34:30 *207:30 0.00168679
50 *41:12 *207:30 0.000466125
51 *41:14 *207:80 0.00126451
52 *46:24 *207:20 3.75052e-05
53 *74:22 *207:14 5.196e-05
54 *74:22 *207:30 0.000176783
55 *88:24 *207:122 5.7119e-05
56 *89:16 *207:80 6.94775e-05
57 *92:14 *207:122 0.00031275
58 *100:10 *207:80 0.000145753
59 *105:112 *207:80 0.000642793
60 *107:24 *207:14 1.86743e-05
61 *108:30 *207:14 0.000195036
62 *127:24 *207:20 0.000108872
63 *129:120 *207:20 0
64 *129:120 *207:122 0
65 *138:8 *207:80 5.52238e-05
66 *138:10 *207:80 0.000123295
67 *141:10 *1487:D 0
68 *146:10 *207:20 0.000296692
69 *147:22 *207:30 0.000197138
70 *147:22 *207:80 0.000495945
71 *147:145 *207:122 0.000129813
72 *152:18 *207:122 0.000308528
73 *153:8 *207:30 7.84395e-05
74 *162:24 *207:30 0.000235087
75 *167:24 *207:20 0.0001828
76 *180:143 *1478:A 5.33005e-05
77 *180:143 *207:122 0.000168939
78 *187:48 *207:20 0.00048827
79 *187:132 *1487:D 0.000449196
80 *189:42 *207:14 2.22043e-05
81 *190:69 *1487:D 7.55747e-05
*RES
1 *1576:Q *207:14 22.9617 
2 *207:14 *207:20 23.4196 
3 *207:20 *207:30 44.3571 
4 *207:30 *1486:A3 36.8893 
5 *207:30 *1477:A 25.4429 
6 *207:20 *207:80 48.1607 
7 *207:80 *1484:A2 9.3 
8 *207:14 *207:89 0.8125 
9 *207:89 *1478:A 16.4071 
10 *207:89 *207:122 36.1429 
11 *207:122 *1413:B 9.3 
12 *207:122 *1487:D 46.4607 
*END

*D_NET *208 0.0379702
*CONN
*I *1487:C I *D sky130_fd_sc_hd__and4_1
*I *1481:A I *D sky130_fd_sc_hd__xor2_1
*I *1413:A_N I *D sky130_fd_sc_hd__and4b_1
*I *1483:B I *D sky130_fd_sc_hd__nand2_1
*I *1484:A1 I *D sky130_fd_sc_hd__a31o_1
*I *1486:A2 I *D sky130_fd_sc_hd__a41o_1
*I *1406:A2 I *D sky130_fd_sc_hd__a21o_1
*I *1577:Q O *D sky130_fd_sc_hd__dfrtp_4
*CAP
1 *1487:C 0.000757432
2 *1481:A 0.000710762
3 *1413:A_N 1.1624e-05
4 *1483:B 9.16465e-05
5 *1484:A1 0
6 *1486:A2 0.000266061
7 *1406:A2 0.000714981
8 *1577:Q 0.000565422
9 *208:94 0.000859552
10 *208:81 0.00197328
11 *208:75 0.00575267
12 *208:38 0.00150601
13 *208:32 0.00177944
14 *208:18 0.00126617
15 *208:14 0.00382788
16 *1406:A2 *1406:A1 0.000385184
17 *1413:A_N *1403:A1 5.52238e-05
18 *1481:A *222:30 0.000589319
19 *1483:B *1483:A 5.71472e-05
20 *1483:B *219:49 2.16852e-05
21 *1487:C *221:74 0.000124043
22 *208:32 *1484:B1 3.08611e-05
23 *208:38 *1406:B1 0.000262841
24 *208:38 *210:40 0.00104526
25 *208:75 *1487:A 0.000280169
26 *208:81 *221:74 0
27 *208:81 *227:26 0.000138898
28 *1413:C *1413:A_N 5.52238e-05
29 *1430:C *1406:A2 0.000311199
30 *1469:A *1481:A 0.000429518
31 *1469:B *1481:A 0.000225579
32 *1486:A4 *1486:A2 8.97749e-05
33 *1544:A *1481:A 5.33005e-05
34 *1570:CLK *1406:A2 5.33005e-05
35 *1577:RESET_B *208:14 9.83388e-05
36 *1586:D *208:32 0.000473605
37 *21:6 *208:38 0.00249118
38 *47:105 *208:81 2.4775e-05
39 *65:14 *1481:A 0.000978608
40 *65:14 *208:94 5.7758e-05
41 *66:10 *208:32 0.00196763
42 *88:24 *1483:B 5.52302e-05
43 *94:12 *1406:A2 0.000443387
44 *95:123 *1486:A2 0
45 *104:22 *208:14 0.000559259
46 *114:24 *208:32 0.000748293
47 *120:42 *208:14 0.000165309
48 *120:42 *208:18 2.06112e-05
49 *120:42 *208:75 0.000121078
50 *127:24 *208:75 9.09539e-05
51 *128:20 *208:81 0
52 *136:24 *208:32 0.0002129
53 *137:24 *208:81 0.000262728
54 *141:10 *1487:C 0
55 *141:10 *208:75 0.000112789
56 *141:28 *1481:A 0.000504653
57 *143:41 *208:14 0.000167609
58 *147:145 *1483:B 0.000158428
59 *147:145 *208:94 0.000225132
60 *156:10 *208:32 0.00202862
61 *175:62 *1481:A 0.000380682
62 *175:62 *1483:B 0.000230729
63 *175:62 *208:94 0.000254058
64 *180:14 *1486:A2 4.93274e-05
65 *190:69 *1487:C 2.69614e-05
66 *200:10 *1406:A2 2.97386e-05
67 *200:10 *1486:A2 2.23393e-05
68 *200:10 *208:38 0.000485898
69 *201:14 *1406:A2 1.86816e-05
70 *202:14 *208:14 4.35597e-05
71 *205:61 *208:14 1.01912e-05
72 *205:61 *208:18 1.01912e-05
73 *205:61 *208:32 0.000137485
74 *207:80 *208:32 1.00733e-05
*RES
1 *1577:Q *208:14 25.5768 
2 *208:14 *208:18 4.77679 
3 *208:18 *208:32 49.8571 
4 *208:32 *208:38 29.3304 
5 *208:38 *1406:A2 29.5054 
6 *208:38 *1486:A2 19.2375 
7 *208:18 *1484:A1 9.3 
8 *208:14 *208:75 12.1357 
9 *208:75 *208:81 10.0019 
10 *208:81 *1483:B 17.3446 
11 *208:81 *208:94 4.52679 
12 *208:94 *1413:A_N 14.3357 
13 *208:94 *1481:A 37.7464 
14 *208:75 *1487:C 22.4365 
*END

*D_NET *209 0.029097
*CONN
*I *1484:B1 I *D sky130_fd_sc_hd__a31o_1
*I *1487:B I *D sky130_fd_sc_hd__and4_1
*I *1413:D I *D sky130_fd_sc_hd__and4b_1
*I *1483:A I *D sky130_fd_sc_hd__nand2_1
*I *1486:A1 I *D sky130_fd_sc_hd__a41o_1
*I *1406:A1 I *D sky130_fd_sc_hd__a21o_1
*I *1578:Q O *D sky130_fd_sc_hd__dfrtp_4
*CAP
1 *1484:B1 0.000348273
2 *1487:B 0.000217075
3 *1413:D 0.000540082
4 *1483:A 0.000590795
5 *1486:A1 6.04927e-05
6 *1406:A1 0.000559356
7 *1578:Q 0
8 *209:85 0.00101904
9 *209:70 0.00186477
10 *209:60 0.00317655
11 *209:56 0.00262711
12 *209:31 0.00134795
13 *209:4 0.00103588
14 *1413:D *1403:A1 2.02681e-05
15 *1413:D *227:26 5.35309e-05
16 *1486:A1 *1486:B1 5.52238e-05
17 *209:31 *1486:B1 2.61337e-05
18 *209:56 *1437:A1 0.000636208
19 *209:56 *1437:B1 0
20 *209:56 *1486:B1 9.90431e-05
21 *209:60 *1441:A 0.000446157
22 *209:60 *210:22 0.00048849
23 *209:60 *218:10 0.000588264
24 *209:60 *218:20 0
25 *209:60 *223:35 0.00102065
26 *209:70 *218:20 0.000515383
27 *209:85 *225:71 0.000114517
28 an[3] *209:56 0.000142856
29 an[4] *209:56 9.25014e-06
30 *1392:C *209:60 0
31 *1406:A2 *1406:A1 0.000385184
32 *1413:C *1413:D 0.000593395
33 *1424:A *1413:D 2.18895e-05
34 *1430:A_N *209:31 0.00026091
35 *1430:B *1406:A1 0
36 *1430:B *209:31 0.000257922
37 *1437:A2 *1486:A1 2.14757e-05
38 *1437:A2 *209:31 0.000483013
39 *1437:A2 *209:56 0.000341821
40 *1447:B *209:70 0.000672714
41 *1464:B1 *209:70 9.90367e-05
42 *1483:B *1483:A 5.71472e-05
43 *1484:A3 *209:70 2.18985e-05
44 *1486:A3 *209:31 0.000122159
45 *1486:A4 *1486:A1 4.81734e-05
46 *1486:A4 *209:31 4.02462e-05
47 *1487:D *1413:D 0.000808995
48 *1488:B *1487:B 4.49542e-05
49 *1520:A *209:60 0.000355281
50 *1566:RESET_B *209:60 0
51 *1578:CLK *1406:A1 0
52 *1586:RESET_B *209:60 0.000239092
53 *1599:A *1413:D 9.41642e-05
54 *31:12 *1413:D 0.000517362
55 *31:12 *1487:B 5.33005e-05
56 *31:12 *209:70 0.000911427
57 *31:12 *209:85 0.000635547
58 *55:20 *209:60 0
59 *66:20 *209:60 0
60 *79:20 *209:60 0.000303168
61 *88:24 *1483:A 0.000542924
62 *94:12 *1406:A1 0.000183711
63 *100:10 *209:60 0.000113443
64 *106:55 *1413:D 0.000135028
65 *106:55 *209:70 0.000225188
66 *119:10 *209:60 0
67 *119:10 *209:70 0.000171203
68 *125:12 *209:70 0.000526278
69 *125:12 *209:85 0.00012958
70 *134:26 *1483:A 0.000718098
71 *152:18 *1483:A 1.24368e-05
72 *154:12 *209:56 0.0003198
73 *155:8 *1413:D 7.47536e-05
74 *155:8 *1487:B 5.14817e-05
75 *201:14 *1406:A1 2.79421e-05
76 *203:45 *1483:A 0.000178847
77 *204:38 *209:70 0.000170063
78 *207:80 *1484:B1 0.000351808
79 *207:80 *209:60 3.17148e-05
80 *207:80 *209:70 5.33005e-05
81 *207:122 *1413:D 5.49544e-05
82 *208:32 *1484:B1 3.08611e-05
*RES
1 *1578:Q *209:4 9.3 
2 *209:4 *1406:A1 29.2464 
3 *209:4 *209:31 20.9821 
4 *209:31 *1486:A1 10.675 
5 *209:31 *209:56 29.4107 
6 *209:56 *209:60 46.8214 
7 *209:60 *209:70 32.9643 
8 *209:70 *1483:A 27.0857 
9 *209:70 *209:85 12.8214 
10 *209:85 *1413:D 26.5366 
11 *209:85 *1487:B 13.1214 
12 *209:60 *1484:B1 14.2643 
*END

*D_NET *210 0.0255386
*CONN
*I *1487:A I *D sky130_fd_sc_hd__and4_1
*I *1412:A_N I *D sky130_fd_sc_hd__and4b_1
*I *1486:B1 I *D sky130_fd_sc_hd__a41o_1
*I *1406:B1 I *D sky130_fd_sc_hd__a21o_1
*I *1579:Q O *D sky130_fd_sc_hd__dfrtp_2
*CAP
1 *1487:A 0.00093233
2 *1412:A_N 0.0001657
3 *1486:B1 0.000273621
4 *1406:B1 0.000640424
5 *1579:Q 0.00187636
6 *210:40 0.00109869
7 *210:36 0.00147858
8 *210:22 0.00257762
9 *210:14 0.00392666
10 *1412:A_N *1451:B 2.22674e-05
11 *210:14 *211:6 0.00041794
12 *210:14 *211:85 8.11174e-05
13 *210:22 *1451:B 0
14 *210:22 *225:30 6.39886e-05
15 *210:36 *1392:A 0.000155025
16 *210:36 *1497:A 3.2534e-05
17 *210:36 *218:20 5.58835e-05
18 *1396:A *210:36 0.00123807
19 *1412:B *210:36 2.49678e-05
20 *1412:D *1412:A_N 2.87593e-05
21 *1412:D *210:36 1.91113e-05
22 *1427:A *1406:B1 0.000193217
23 *1437:A2 *1486:B1 0.000139907
24 *1486:A1 *1486:B1 5.52238e-05
25 *1486:A4 *1486:B1 0.000287242
26 *1488:B *1487:A 9.78246e-05
27 *1561:D *210:14 6.7224e-05
28 *1563:RESET_B *1487:A 0
29 *1563:RESET_B *210:22 0.000539892
30 *1564:RESET_B *210:14 7.83587e-05
31 *1578:CLK *1406:B1 6.14514e-05
32 *1591:CLK *210:36 0.000221978
33 *1591:D *210:36 0.000223675
34 *1606:A *210:14 7.96948e-05
35 *21:6 *1406:B1 0.000614379
36 *57:16 *210:14 0.000119279
37 *80:16 *210:36 7.55769e-05
38 *87:10 *210:36 0
39 *90:14 *1487:A 0
40 *98:28 *210:14 2.8266e-06
41 *100:10 *210:22 6.62618e-05
42 *106:14 *210:36 0.00127896
43 *119:10 *210:36 0.00018039
44 *120:30 *210:14 1.13406e-05
45 *120:42 *210:22 0
46 *141:10 *1487:A 0.00151993
47 *141:10 *210:22 0
48 *155:34 *210:36 0
49 *180:35 *210:14 0.000178425
50 *180:35 *210:22 0.000268762
51 *180:56 *210:14 4.46231e-06
52 *183:22 *1406:B1 5.40609e-05
53 *187:69 *210:36 4.18505e-05
54 *189:80 *210:36 0.000394571
55 *190:67 *1487:A 0
56 *190:69 *1487:A 0
57 *196:43 *210:14 0.000152823
58 *200:10 *1406:B1 0.000113426
59 *200:10 *210:40 0.000559145
60 *201:30 *210:36 2.51343e-06
61 *204:10 *210:36 0.000251183
62 *205:30 *1412:A_N 0.000111532
63 *205:30 *210:22 4.30188e-05
64 *205:61 *210:22 8.23706e-05
65 *207:80 *210:22 5.41797e-05
66 *208:38 *1406:B1 0.000262841
67 *208:38 *210:40 0.00104526
68 *208:75 *1487:A 0.000280169
69 *209:31 *1486:B1 2.61337e-05
70 *209:56 *1486:B1 9.90431e-05
71 *209:60 *210:22 0.00048849
*RES
1 *1579:Q *210:14 41.7643 
2 *210:14 *210:22 31.1429 
3 *210:22 *210:36 48.7679 
4 *210:36 *210:40 14.4821 
5 *210:40 *1406:B1 34.5321 
6 *210:40 *1486:B1 24.9429 
7 *210:22 *1412:A_N 20.8 
8 *210:14 *1487:A 39.1036 
*END

*D_NET *211 0.0458761
*CONN
*I *1429:A2 I *D sky130_fd_sc_hd__a31o_1
*I *1407:C I *D sky130_fd_sc_hd__and4_2
*I *1426:A1 I *D sky130_fd_sc_hd__a21o_1
*I *1422:A I *D sky130_fd_sc_hd__or2_1
*I *1421:A I *D sky130_fd_sc_hd__nand2_1
*I *1425:B I *D sky130_fd_sc_hd__nand3_1
*I *1561:Q O *D sky130_fd_sc_hd__dfrtp_4
*CAP
1 *1429:A2 0
2 *1407:C 0.000478549
3 *1426:A1 0.000270835
4 *1422:A 0.000361404
5 *1421:A 0.000803817
6 *1425:B 0.000811398
7 *1561:Q 0.000231206
8 *211:108 0.00206482
9 *211:87 0.00237126
10 *211:85 0.00293402
11 *211:28 0.00234072
12 *211:18 0.00288816
13 *211:12 0.0012293
14 *211:6 0.00296394
15 *1407:C *1407:B 5.33005e-05
16 *1425:B *1408:C 4.73949e-05
17 *1425:B *1425:A 0.00149719
18 *1425:B *1440:A 0.000221978
19 *1426:A1 *1426:B1 0.000320365
20 *1426:A1 *219:8 3.15653e-05
21 *211:87 *219:8 0.000901575
22 *211:108 *1429:A1 9.35419e-05
23 *211:108 *219:23 0.00354897
24 *1395:A *211:28 0.0001212
25 *1397:B *1421:A 0.000146392
26 *1407:D *1407:C 0.00131829
27 *1421:B *1421:A 0.000364472
28 *1422:B *1422:A 0.000126771
29 *1425:C *1425:B 0.00279089
30 *1440:B *1421:A 0.00014041
31 *1440:B *211:18 0.00163507
32 *1459:C *1407:C 1.98839e-05
33 *1462:A *211:108 0.000747395
34 *1462:C *211:108 1.16848e-05
35 *1505:B2 *1421:A 9.20773e-05
36 *1564:RESET_B *211:85 2.09826e-05
37 *1579:RESET_B *211:85 0.00103719
38 *1606:A *211:6 0.000809101
39 *1606:A *211:85 0.000175892
40 *20:14 *211:85 0.000117477
41 *20:14 *211:87 2.09607e-05
42 *25:10 *211:85 0.00110753
43 *72:10 *1421:A 0.000683507
44 *72:10 *211:12 0.000914571
45 *72:10 *211:18 0.000757275
46 *75:12 *211:18 0.000218583
47 *94:12 *211:108 2.05533e-05
48 *98:28 *211:85 4.64488e-06
49 *121:12 *1425:B 0.000343938
50 *130:22 *211:85 1.14338e-05
51 *139:33 *211:28 9.33439e-05
52 *161:24 *211:85 0
53 *178:14 *211:28 0.00187706
54 *180:14 *1407:C 0.00126257
55 *191:8 *1421:A 3.07555e-05
56 *191:30 *211:18 0.000131778
57 *199:36 *1421:A 0.000272371
58 *200:57 *1426:A1 0
59 *200:57 *211:85 0
60 *200:57 *211:87 0
61 *200:100 *1422:A 0.000431186
62 *200:100 *211:18 0.000135028
63 *201:61 *211:12 0.000919436
64 *210:14 *211:6 0.00041794
65 *210:14 *211:85 8.11174e-05
*RES
1 *1561:Q *211:6 17.2286 
2 *211:6 *211:12 20.9643 
3 *211:12 *211:18 26.625 
4 *211:18 *211:28 34.9821 
5 *211:28 *1425:B 37.7821 
6 *211:18 *1421:A 45.3714 
7 *211:12 *1422:A 15.5857 
8 *211:6 *211:85 41.361 
9 *211:85 *211:87 12.4196 
10 *211:87 *1426:A1 19.1214 
11 *211:87 *211:108 43.8036 
12 *211:108 *1407:C 35.7643 
13 *211:108 *1429:A2 9.3 
*END

*D_NET *212 0.0328399
*CONN
*I *1493:A I *D sky130_fd_sc_hd__nand2_1
*I *1415:C I *D sky130_fd_sc_hd__and4_1
*I *1497:A I *D sky130_fd_sc_hd__and4_1
*I *1492:A I *D sky130_fd_sc_hd__or2_1
*I *1580:Q O *D sky130_fd_sc_hd__dfrtp_2
*CAP
1 *1493:A 2.23854e-05
2 *1415:C 0
3 *1497:A 0.00185741
4 *1492:A 0.000688035
5 *1580:Q 0.00128988
6 *212:71 0.0027073
7 *212:63 0.00201384
8 *212:38 0.00220262
9 *212:30 0.00208262
10 *212:16 0.00299948
11 *1497:A *1510:A 0.00026839
12 *1497:A *217:14 0.00241481
13 *212:30 *1403:A1 0.000135028
14 *212:38 *216:26 0.000388513
15 *212:63 *1415:B 1.02504e-05
16 *212:63 *216:41 9.58632e-05
17 *212:71 *1415:B 0.000380341
18 *212:71 *214:10 0.00110182
19 *212:71 *227:97 0
20 *1403:B1 *212:30 0.000390933
21 *1492:B *1492:A 0.0001867
22 *1492:B *212:38 1.03904e-05
23 *1494:B *212:71 0
24 *1494:C *212:71 0.000138323
25 *1504:A *212:16 0
26 *1504:A *212:30 7.72966e-05
27 *1507:B *212:38 0.000128675
28 *1507:C *1492:A 5.87643e-05
29 *1507:C *212:63 1.93738e-05
30 *1508:C *212:38 0
31 *1511:C *212:71 0.000260377
32 *1524:B1_N *212:30 0.000277321
33 *47:105 *212:16 0
34 *70:10 *212:63 0.00259916
35 *70:10 *212:71 0.00152584
36 *74:22 *212:63 0.00025254
37 *74:22 *212:71 0.000256457
38 *86:16 *212:16 0.00124284
39 *86:16 *212:30 0
40 *87:10 *1497:A 5.01213e-05
41 *87:34 *212:16 0.000271904
42 *87:34 *212:30 8.88932e-05
43 *96:10 *212:63 0.000967513
44 *107:24 *212:63 0.000117442
45 *109:12 *212:63 0.000687483
46 *121:12 *212:16 0
47 *122:32 *212:16 2.30116e-06
48 *124:14 *212:16 0
49 *148:20 *1492:A 0.000146853
50 *155:57 *212:16 6.97822e-05
51 *156:25 *212:63 5.23296e-05
52 *160:8 *212:30 0.00029744
53 *160:8 *212:38 1.24368e-05
54 *160:10 *212:63 0
55 *161:24 *212:71 1.43288e-05
56 *167:24 *212:16 0.000254165
57 *170:8 *1492:A 5.33005e-05
58 *179:132 *212:16 0.000320178
59 *187:14 *1492:A 0.000228566
60 *187:14 *212:38 2.04658e-05
61 *187:132 *212:30 0.000662569
62 *188:105 *212:16 0.000405745
63 *207:30 *212:71 0
64 *210:36 *1497:A 3.2534e-05
*RES
1 *1580:Q *212:16 49.6036 
2 *212:16 *212:30 29.7679 
3 *212:30 *212:38 16.0536 
4 *212:38 *1492:A 30.4964 
5 *212:38 *212:63 41.3214 
6 *212:63 *212:71 33.2143 
7 *212:71 *1497:A 45.2286 
8 *212:63 *1415:C 13.8 
9 *212:30 *1493:A 9.72857 
*END

*D_NET *213 0.0295079
*CONN
*I *1415:D I *D sky130_fd_sc_hd__and4_1
*I *1497:B I *D sky130_fd_sc_hd__and4_1
*I *1496:A I *D sky130_fd_sc_hd__inv_2
*I *1581:Q O *D sky130_fd_sc_hd__dfrtp_2
*CAP
1 *1415:D 0.000496221
2 *1497:B 0
3 *1496:A 0
4 *1581:Q 3.74264e-05
5 *213:81 0.00176079
6 *213:61 0.00329575
7 *213:33 0.00280986
8 *213:31 0.00204194
9 *213:22 0.00137134
10 *213:6 0.00167959
11 *1415:D *1415:A 0.00030294
12 *213:33 *1444:A 0.000372579
13 *213:33 *221:74 0.000483128
14 *213:33 *222:10 0
15 *213:33 *222:30 0
16 *1394:B *213:33 0.000484029
17 *1409:B *1415:D 1.00733e-05
18 *1459:B *213:33 0
19 *1459:B *213:61 0.000268385
20 *1459:B *213:81 0.000304354
21 *1474:D *213:6 5.65955e-05
22 *1474:D *213:31 4.17433e-05
23 *1497:C *213:81 0.000692615
24 *1497:D *213:81 1.98839e-05
25 *1498:B1 *213:81 0.000127977
26 *1500:B *213:81 0.000112731
27 *1504:A *213:22 8.6229e-06
28 *1562:D *213:81 8.11174e-05
29 *1565:CLK *213:22 0
30 *1569:RESET_B *213:33 4.28365e-05
31 *1569:RESET_B *213:61 9.66735e-06
32 *1571:RESET_B *213:61 0.000135131
33 *1584:D *213:33 0.000133468
34 *23:16 *213:33 0
35 *39:8 *213:81 0.00130344
36 *41:14 *213:61 0.000307722
37 *58:20 *213:22 0.000101601
38 *74:22 *213:81 0.000135623
39 *83:12 *213:61 0.000439941
40 *85:10 *213:33 0.000192563
41 *88:24 *213:33 0.000168334
42 *95:16 *213:81 0.000443965
43 *95:70 *1415:D 0.000224315
44 *95:70 *213:81 0.000126951
45 *95:123 *213:81 0.000875139
46 *96:14 *1415:D 0.000451319
47 *96:33 *1415:D 9.84845e-05
48 *97:22 *213:61 3.42999e-05
49 *101:12 *213:22 5.14074e-05
50 *101:12 *213:33 0
51 *103:8 *1415:D 6.50255e-05
52 *105:112 *213:61 0.000156591
53 *115:54 *213:81 0.000203264
54 *129:103 *213:31 0.000354511
55 *147:34 *213:81 0.000139637
56 *175:62 *213:33 0.00109873
57 *175:81 *213:33 0.000826563
58 *176:41 *213:33 0.000265385
59 *179:18 *213:33 0.000790108
60 *179:28 *213:33 0.000125243
61 *179:108 *213:22 2.70341e-05
62 *183:64 *213:61 0
63 *183:64 *213:81 7.12029e-06
64 *185:16 *213:22 0.000449539
65 *187:48 *213:61 0.000362108
66 *187:48 *213:81 5.10822e-05
67 *188:158 *213:81 3.85853e-05
68 *190:67 *213:33 0.000109994
69 *191:70 *213:33 8.92708e-06
70 *193:14 *213:81 0
71 *194:10 *213:33 6.93944e-05
72 *199:28 *213:22 0.00178094
73 *207:122 *213:33 0.000442254
*RES
1 *1581:Q *213:6 9.83571 
2 *213:6 *213:22 43.1607 
3 *213:22 *1496:A 9.3 
4 *213:6 *213:31 8.32143 
5 *213:31 *213:33 49.7589 
6 *213:33 *213:61 40.1339 
7 *213:61 *213:81 48.7679 
8 *213:81 *1497:B 9.3 
9 *213:61 *1415:D 24.3357 
*END

*D_NET *214 0.017326
*CONN
*I *1415:B I *D sky130_fd_sc_hd__and4_1
*I *1499:A I *D sky130_fd_sc_hd__or2_1
*I *1500:A I *D sky130_fd_sc_hd__nand2_2
*I *1582:Q O *D sky130_fd_sc_hd__dfrtp_1
*CAP
1 *1415:B 0.000138272
2 *1499:A 0.00158035
3 *1500:A 0
4 *1582:Q 0.000621224
5 *214:37 0.00260609
6 *214:16 0.00150716
7 *214:10 0.00124091
8 *1499:A *1417:B1_N 5.25941e-05
9 *214:37 *1401:A1 9.63832e-05
10 *214:37 *1417:B1_N 0.000202816
11 *214:37 *220:10 0.0010496
12 *1401:B1 *214:37 5.33005e-05
13 *1417:A2 *214:37 0.000763481
14 *1494:C *214:10 0.000263046
15 *1499:B *1499:A 7.87861e-05
16 *23:32 *1499:A 3.79108e-05
17 *40:12 *1499:A 0.000896106
18 *74:22 *214:10 0.000179097
19 *83:12 *214:37 0.00112899
20 *91:8 *214:16 0.000319786
21 *91:8 *214:37 4.73286e-05
22 *93:51 *214:37 0.000103363
23 *160:10 *1415:B 0.000137187
24 *160:10 *214:10 0.000115436
25 *165:16 *214:37 0.000151833
26 *170:37 *214:10 0.00019783
27 *187:61 *214:37 0.000307717
28 *188:32 *214:16 0.00048037
29 *188:32 *214:37 4.22283e-05
30 *190:31 *214:37 0.00112732
31 *203:18 *1499:A 0.000307059
32 *212:63 *1415:B 1.02504e-05
33 *212:71 *1415:B 0.000380341
34 *212:71 *214:10 0.00110182
*RES
1 *1582:Q *214:10 32.9429 
2 *214:10 *214:16 14.5 
3 *214:16 *1500:A 9.3 
4 *214:16 *214:37 41.7679 
5 *214:37 *1499:A 29.1571 
6 *214:10 *1415:B 18.7821 
*END

*D_NET *215 0.0112592
*CONN
*I *1503:A I *D sky130_fd_sc_hd__inv_2
*I *1415:A I *D sky130_fd_sc_hd__and4_1
*I *1583:Q O *D sky130_fd_sc_hd__dfrtp_1
*CAP
1 *1503:A 0.000404184
2 *1415:A 0.000175315
3 *1583:Q 0.00126017
4 *215:14 0.000900629
5 *215:12 0.0015813
6 *1415:D *1415:A 0.00030294
7 *1454:A *1503:A 0.000772646
8 *1454:A *215:14 0.000126446
9 *1498:B1 *215:14 0.000146934
10 *1498:C1 *215:14 3.36275e-05
11 *1515:A *215:12 0.000654177
12 *33:22 *1503:A 9.87983e-06
13 *33:22 *215:14 0.000310371
14 *48:16 *215:12 0.000297036
15 *97:8 *1503:A 0.000481441
16 *97:44 *1503:A 0.000210637
17 *105:12 *1503:A 0.000129332
18 *162:24 *1503:A 0.000126169
19 *162:24 *215:14 0.000108934
20 *175:18 *215:12 1.59373e-05
21 *188:32 *1503:A 2.2142e-05
22 *189:72 *215:12 0.000435737
23 *189:80 *215:12 0.0019974
24 *201:14 *215:14 0.000755792
*RES
1 *1583:Q *215:12 43.9429 
2 *215:12 *215:14 11.3571 
3 *215:14 *1415:A 16.8 
4 *215:14 *1503:A 26.5321 
*END

*D_NET *216 0.0320071
*CONN
*I *1416:C1 I *D sky130_fd_sc_hd__o211ai_2
*I *1506:B1 I *D sky130_fd_sc_hd__a21oi_1
*I *1507:A I *D sky130_fd_sc_hd__and3_2
*I *1584:Q O *D sky130_fd_sc_hd__dfrtp_4
*CAP
1 *1416:C1 0.000152531
2 *1506:B1 0
3 *1507:A 0
4 *1584:Q 0.00142656
5 *216:54 0.00312038
6 *216:41 0.00413893
7 *216:26 0.00300869
8 *216:22 0.002919
9 *216:18 0.00250795
10 *216:22 *222:10 0.00028782
11 *1490:C *1416:C1 0.000146618
12 *1492:B *216:26 5.74309e-05
13 *1492:B *216:41 9.04716e-05
14 *1493:B *216:26 0.000355269
15 *1506:A1 *216:54 5.33005e-05
16 *1507:C *216:41 1.21258e-05
17 *1508:C *216:26 0
18 *1565:CLK *216:18 7.83587e-05
19 *1565:CLK *216:22 2.59355e-05
20 *1565:RESET_B *216:22 9.24375e-05
21 *1584:D *216:22 0.000156108
22 *1588:D *216:41 0.00214737
23 *11:23 *216:26 0
24 *40:12 *1416:C1 5.10678e-05
25 *41:14 *216:54 0.00361118
26 *43:10 *216:18 0
27 *58:20 *216:26 0.000119898
28 *70:10 *216:41 0.00046845
29 *107:24 *216:22 0.000329827
30 *107:24 *216:41 2.21972e-05
31 *123:12 *216:18 0
32 *130:22 *1416:C1 0.000404576
33 *156:25 *216:41 2.59355e-05
34 *168:33 *216:41 0.000265031
35 *168:33 *216:54 0.000135028
36 *169:8 *216:41 7.27071e-05
37 *179:108 *216:22 0.00236214
38 *181:10 *216:26 0
39 *181:16 *216:26 1.21041e-05
40 *181:18 *216:26 0.000276855
41 *181:18 *216:41 0.000351566
42 *181:22 *216:41 0.000227729
43 *191:8 *216:18 0
44 *196:31 *216:41 0.000268767
45 *199:28 *216:18 0.000818392
46 *199:36 *216:18 0.000580362
47 *206:26 *1416:C1 0.000341587
48 *212:38 *216:26 0.000388513
49 *212:63 *216:41 9.58632e-05
*RES
1 *1584:Q *216:18 48.3714 
2 *216:18 *216:22 33.375 
3 *216:22 *216:26 41.3571 
4 *216:26 *1507:A 9.3 
5 *216:26 *216:41 44.6786 
6 *216:41 *1506:B1 9.3 
7 *216:41 *216:54 43.7857 
8 *216:54 *1416:C1 20.3 
*END

*D_NET *217 0.0324973
*CONN
*I *1509:A I *D sky130_fd_sc_hd__or2_1
*I *1514:A2 I *D sky130_fd_sc_hd__o211a_1
*I *1405:A I *D sky130_fd_sc_hd__inv_2
*I *1510:A I *D sky130_fd_sc_hd__nand2_1
*I *1585:Q O *D sky130_fd_sc_hd__dfrtp_4
*CAP
1 *1509:A 0.000841885
2 *1514:A2 0.000150757
3 *1405:A 0
4 *1510:A 0.000264538
5 *1585:Q 0.000709795
6 *217:35 0.00121491
7 *217:29 0.00211245
8 *217:14 0.00276102
9 *217:12 0.00202631
10 *217:10 0.0018283
11 *217:14 *1601:A 0.00069786
12 *217:14 *218:20 0.000266479
13 *217:35 *221:98 9.58181e-05
14 *1428:A *217:29 0.0001703
15 *1448:A *217:35 1.25275e-05
16 *1454:A *217:29 0.000302913
17 *1454:A *217:35 2.68045e-05
18 *1477:B *1510:A 0.000397239
19 *1477:B *217:14 0.000523605
20 *1490:C *1514:A2 4.94362e-05
21 *1497:A *1510:A 0.00026839
22 *1497:A *217:14 0.00241481
23 *1501:A *1509:A 0.000331429
24 *1509:B *1509:A 0.00115602
25 *1511:C *1510:A 0.000749318
26 *1514:A1 *1514:A2 0.000126439
27 *1514:A1 *217:12 5.52302e-05
28 *1514:A1 *217:14 0.000358971
29 *1517:D1 *217:35 0.000585266
30 *1583:RESET_B *1509:A 2.59355e-05
31 *1585:CLK *217:10 9.71197e-05
32 *1585:D *217:10 5.88126e-05
33 *1585:RESET_B *217:10 0.000104238
34 *1585:RESET_B *217:12 0.000126702
35 *1585:RESET_B *217:14 0.000247142
36 *34:18 *217:35 0.000535944
37 *34:30 *217:29 0.000105436
38 *34:30 *217:35 0.000948
39 *37:10 *1509:A 0
40 *50:18 *1509:A 0.000173318
41 *74:22 *217:29 0.000117148
42 *88:34 *217:35 0.000494568
43 *96:10 *217:35 0
44 *108:30 *217:35 4.38265e-05
45 *115:52 *1514:A2 1.04232e-05
46 *115:54 *1514:A2 2.79421e-05
47 *149:25 *217:35 0.00194567
48 *154:16 *1514:A2 1.08359e-05
49 *160:10 *217:35 9.25867e-05
50 *161:24 *1509:A 0.000167233
51 *162:24 *217:29 0.000287043
52 *162:24 *217:35 0.000135432
53 *175:70 *217:35 9.58181e-05
54 *183:16 *217:29 0.000781889
55 *183:22 *217:29 0.000709841
56 *184:14 *1509:A 0
57 *184:24 *1509:A 7.08476e-05
58 *184:24 *217:10 0.000217141
59 *184:24 *217:12 0.000142856
60 *185:20 *217:35 0.00125756
61 *187:22 *217:35 0.000138243
62 *191:30 *1509:A 0.000255321
63 *201:14 *217:29 0.000309994
64 *207:30 *217:29 0.00226358
*RES
1 *1585:Q *217:10 21.8893 
2 *217:10 *217:12 5.46429 
3 *217:12 *217:14 41.1964 
4 *217:14 *1510:A 20.0143 
5 *217:14 *217:29 39.5089 
6 *217:29 *217:35 48.3304 
7 *217:35 *1405:A 9.3 
8 *217:12 *1514:A2 21.6214 
9 *217:10 *1509:A 40.6393 
*END

*D_NET *218 0.0141678
*CONN
*I *1601:A I *D sky130_fd_sc_hd__dlygate4sd3_1
*I *1417:B1_N I *D sky130_fd_sc_hd__a21bo_2
*I *1586:Q O *D sky130_fd_sc_hd__dfrtp_1
*CAP
1 *1601:A 0.000128758
2 *1417:B1_N 0.000738878
3 *1586:Q 0.000341874
4 *218:20 0.00223834
5 *218:10 0.00197009
6 *218:20 *1392:A 0.000156589
7 *218:20 *1441:A 0
8 *218:20 *223:35 0.000118344
9 *1417:A2 *1417:B1_N 0.00123241
10 *1489:A *1601:A 0.000354337
11 *1499:A *1417:B1_N 5.25941e-05
12 *1512:A *218:20 0.00105317
13 *1585:RESET_B *1601:A 0.000179645
14 *1585:RESET_B *218:20 0.000141975
15 *1586:RESET_B *218:20 0.000106799
16 *23:32 *1417:B1_N 0.000881866
17 *66:20 *218:10 0
18 *80:16 *218:20 0.000112073
19 *119:10 *218:20 0.00168247
20 *187:69 *218:20 0.000180956
21 *201:30 *218:20 7.66543e-05
22 *204:10 *218:20 1.36765e-05
23 *204:21 *218:20 7.46081e-05
24 *204:38 *218:20 4.98055e-06
25 *209:60 *218:10 0.000588264
26 *209:60 *218:20 0
27 *209:70 *218:20 0.000515383
28 *210:36 *218:20 5.58835e-05
29 *214:37 *1417:B1_N 0.000202816
30 *217:14 *1601:A 0.00069786
31 *217:14 *218:20 0.000266479
*RES
1 *1586:Q *218:10 26.0143 
2 *218:10 *218:20 46.7321 
3 *218:20 *1417:B1_N 33.9339 
4 *218:10 *1601:A 15.9964 
*END

*D_NET *219 0.0296265
*CONN
*I *1425:A I *D sky130_fd_sc_hd__nand3_1
*I *1407:B I *D sky130_fd_sc_hd__and4_2
*I *1429:A1 I *D sky130_fd_sc_hd__a31o_1
*I *1426:B1 I *D sky130_fd_sc_hd__a21o_1
*I *1562:Q O *D sky130_fd_sc_hd__dfrtp_4
*CAP
1 *1425:A 0.000705687
2 *1407:B 0.000205207
3 *1429:A1 4.58404e-05
4 *1426:B1 0.00019834
5 *1562:Q 0.000311768
6 *219:49 0.00257747
7 *219:47 0.00194619
8 *219:34 0.000911735
9 *219:23 0.00202628
10 *219:8 0.00185842
11 *1425:A *1408:C 1.34631e-05
12 *219:34 *1429:B1 0.000284574
13 *219:47 *1429:B1 1.24912e-05
14 *219:49 *222:30 0.000171029
15 *1407:C *1407:B 5.33005e-05
16 *1425:B *1425:A 0.00149719
17 *1426:A1 *1426:B1 0.000320365
18 *1426:A1 *219:8 3.15653e-05
19 *1459:C *1407:B 8.43535e-06
20 *1462:B *219:23 7.62323e-05
21 *1483:B *219:49 2.16852e-05
22 *1486:A4 *219:34 8.98299e-05
23 *20:14 *1426:B1 0.00011307
24 *20:14 *219:8 0.00048366
25 *65:14 *219:49 0.00111661
26 *67:10 *1407:B 9.84673e-05
27 *89:16 *219:49 0
28 *92:20 *219:49 0.00011062
29 *94:12 *1429:A1 0.000182811
30 *94:12 *219:23 0.000650319
31 *110:16 *1425:A 0.000224308
32 *137:24 *219:34 0.000183617
33 *138:10 *219:49 0.00363533
34 *147:28 *219:34 0.000865138
35 *147:28 *219:47 0.000137992
36 *147:28 *219:49 0.000610325
37 *147:34 *219:34 0.000120962
38 *147:145 *219:49 6.72032e-05
39 *175:18 *219:49 0.000144887
40 *175:43 *219:49 0.000113219
41 *175:62 *219:49 0
42 *179:18 *219:49 0
43 *180:14 *1407:B 2.59355e-05
44 *180:29 *1407:B 1.52217e-05
45 *180:29 *219:47 7.15632e-05
46 *180:29 *219:49 0.00231111
47 *180:123 *219:49 0.00042115
48 *207:80 *219:49 1.18064e-05
49 *211:87 *219:8 0.000901575
50 *211:108 *1429:A1 9.35419e-05
51 *211:108 *219:23 0.00354897
*RES
1 *1562:Q *219:8 25.7643 
2 *219:8 *1426:B1 19.0143 
3 *219:8 *219:23 40.3571 
4 *219:23 *1429:A1 11.0679 
5 *219:23 *219:34 21.0179 
6 *219:34 *1407:B 16.3893 
7 *219:34 *219:47 2.33036 
8 *219:47 *219:49 64.3304 
9 *219:49 *1425:A 29.0321 
*END

*D_NET *220 0.0103263
*CONN
*I *1407:A I *D sky130_fd_sc_hd__and4_2
*I *1429:B1 I *D sky130_fd_sc_hd__a31o_1
*I *1563:Q O *D sky130_fd_sc_hd__dfrtp_1
*CAP
1 *1407:A 0
2 *1429:B1 0.000578534
3 *1563:Q 0.00145136
4 *220:10 0.0020299
5 *1486:A4 *1429:B1 0.000150625
6 *1515:A *220:10 0.000240202
7 *92:20 *220:10 0.00108221
8 *93:51 *1429:B1 7.54369e-06
9 *93:51 *220:10 4.40598e-05
10 *137:24 *1429:B1 0.000112793
11 *147:34 *1429:B1 0.000232466
12 *180:14 *1429:B1 0.00128693
13 *180:29 *1429:B1 3.18809e-05
14 *180:29 *220:10 0.000349054
15 *190:31 *220:10 0.00138212
16 *214:37 *220:10 0.0010496
17 *219:34 *1429:B1 0.000284574
18 *219:47 *1429:B1 1.24912e-05
*RES
1 *1563:Q *220:10 47.3893 
2 *220:10 *1429:B1 31.8893 
3 *220:10 *1407:A 13.8 
*END

*D_NET *221 0.0365419
*CONN
*I *1434:A I *D sky130_fd_sc_hd__or2_1
*I *1433:A I *D sky130_fd_sc_hd__nand2_1
*I *1408:D I *D sky130_fd_sc_hd__and4_1
*I *1438:B I *D sky130_fd_sc_hd__and3_1
*I *1437:A1 I *D sky130_fd_sc_hd__a21oi_1
*I *1564:Q O *D sky130_fd_sc_hd__dfrtp_4
*CAP
1 *1434:A 0
2 *1433:A 0.00019336
3 *1408:D 5.96268e-05
4 *1438:B 0.00014301
5 *1437:A1 0.0015635
6 *1564:Q 8.86221e-05
7 *221:98 0.000664571
8 *221:84 0.000735197
9 *221:74 0.00445804
10 *221:45 0.00554398
11 *221:12 0.00343114
12 *221:8 0.0032228
13 *1408:D *1408:B 5.33005e-05
14 *1438:B *1438:A 5.25759e-05
15 *221:74 *222:30 0.000209221
16 *221:74 *227:26 4.90016e-05
17 *221:98 *1414:A1 3.34295e-05
18 an[4] *1437:A1 0.000186669
19 an[5] *1437:A1 5.52302e-05
20 an[6] *1437:A1 5.52302e-05
21 *1426:A2 *221:12 0.000124749
22 *1433:B *221:84 2.6269e-05
23 *1445:C1 *221:84 0.000734749
24 *1445:C1 *221:98 5.33005e-05
25 *1479:C *1433:A 0.000262244
26 *1479:C *221:98 0.000333394
27 *1487:C *221:74 0.000124043
28 *1538:A *221:84 5.33005e-05
29 *1551:A *221:12 0
30 *1564:RESET_B *221:74 0
31 *1568:RESET_B *221:74 0
32 *1579:RESET_B *221:12 0
33 *1579:RESET_B *221:45 0
34 *1580:RESET_B *1433:A 0.000141941
35 *1596:A *221:74 0.00069065
36 *1597:A *221:74 0.000634521
37 *54:18 *221:74 0.000106202
38 *77:12 *221:8 9.07247e-05
39 *77:12 *221:12 3.45894e-05
40 *87:26 *221:74 0.00021084
41 *95:82 *221:84 5.33005e-05
42 *96:8 *1408:D 0.000139254
43 *97:44 *221:98 0.000384295
44 *97:53 *221:98 3.34295e-05
45 *99:10 *221:45 0.000401515
46 *101:12 *221:74 0
47 *106:55 *221:74 6.21057e-05
48 *108:12 *221:45 9.97164e-05
49 *110:16 *221:98 0.000190728
50 *115:106 *221:98 0.000246744
51 *116:10 *1433:A 7.62323e-05
52 *122:32 *221:74 1.19114e-05
53 *128:20 *221:74 0.000533946
54 *129:64 *221:12 0.000551442
55 *129:66 *221:74 0.000735146
56 *154:12 *1437:A1 0.000982608
57 *175:70 *221:98 0.00022357
58 *180:143 *221:84 8.46386e-05
59 *181:10 *1433:A 0.000392447
60 *181:10 *221:98 0.000146254
61 *181:16 *221:98 0.000197999
62 *188:76 *221:84 1.3701e-05
63 *188:76 *221:98 6.05161e-06
64 *188:105 *221:84 0.000489283
65 *188:105 *221:98 6.26774e-06
66 *189:14 *221:74 0.000682975
67 *197:10 *221:12 0
68 *197:10 *221:45 1.18847e-05
69 *200:57 *221:12 0.00248349
70 *200:88 *221:8 0.000183477
71 *200:88 *221:45 0.000538481
72 *200:88 *221:74 0.000629797
73 *202:49 *221:74 0.000314044
74 *208:81 *221:74 0
75 *209:56 *1437:A1 0.000636208
76 *213:33 *221:74 0.000483128
77 *217:35 *221:98 9.58181e-05
*RES
1 *1564:Q *221:8 16.3893 
2 *221:8 *221:12 48.9464 
3 *221:12 *1437:A1 41.05 
4 *221:8 *221:45 27.8393 
5 *221:45 *1438:B 11.0679 
6 *221:45 *221:74 48.1142 
7 *221:74 *221:84 10.6741 
8 *221:84 *221:98 28.3438 
9 *221:98 *1408:D 15.1571 
10 *221:98 *1433:A 20.4429 
11 *221:84 *1434:A 9.3 
*END

*D_NET *222 0.0340561
*CONN
*I *1408:C I *D sky130_fd_sc_hd__and4_1
*I *1438:A I *D sky130_fd_sc_hd__and3_1
*I *1437:B1 I *D sky130_fd_sc_hd__a21oi_1
*I *1565:Q O *D sky130_fd_sc_hd__dfrtp_2
*CAP
1 *1408:C 0.000746873
2 *1438:A 0.00224407
3 *1437:B1 0.000321248
4 *1565:Q 0.001318
5 *222:36 0.00207837
6 *222:34 0.00179448
7 *222:30 0.00438575
8 *222:10 0.00416919
9 *1438:A *1447:A 2.59355e-05
10 *222:10 *1444:A 0.000108282
11 *222:30 *224:12 1.94945e-05
12 *1410:B *1438:A 0.000363733
13 *1425:A *1408:C 1.34631e-05
14 *1425:B *1408:C 4.73949e-05
15 *1425:C *1408:C 0.00128872
16 *1438:B *1438:A 5.25759e-05
17 *1447:B *1438:A 4.58194e-05
18 *1481:A *222:30 0.000589319
19 *1502:A *222:36 0.000158398
20 *1565:RESET_B *222:10 0
21 *1581:RESET_B *1408:C 0.000646014
22 *1584:D *222:10 0.000357162
23 *1596:A *222:30 0.000179617
24 *11:23 *222:30 0
25 *47:79 *222:30 0.000113079
26 *47:105 *222:30 0.000426334
27 *54:18 *222:30 1.91871e-05
28 *65:14 *222:30 0.000612282
29 *65:24 *1438:A 0.000315687
30 *65:24 *222:30 0.000169655
31 *65:24 *222:34 2.79421e-05
32 *85:31 *1438:A 0.000537597
33 *85:31 *222:34 9.58181e-05
34 *86:18 *222:30 1.94945e-05
35 *86:18 *222:36 0.00438918
36 *87:10 *222:36 2.37944e-05
37 *94:30 *222:36 0.00218793
38 *95:55 *1438:A 0.000199952
39 *119:10 *1437:B1 0
40 *122:12 *222:36 0.000250109
41 *133:22 *222:30 0.000735091
42 *138:10 *222:10 6.79782e-05
43 *138:10 *222:30 1.8441e-05
44 *155:22 *222:36 0.00113687
45 *167:24 *222:30 0.00033955
46 *167:24 *222:36 0.000121549
47 *168:8 *222:10 0
48 *168:14 *222:10 0
49 *175:62 *222:30 5.44167e-05
50 *179:100 *222:10 0
51 *181:10 *1408:C 0.000101777
52 *185:45 *222:30 0.00011217
53 *191:70 *1408:C 0.000310243
54 *206:14 *1438:A 2.47833e-05
55 *206:26 *1438:A 2.32517e-05
56 *209:56 *1437:B1 0
57 *213:33 *222:10 0
58 *213:33 *222:30 0
59 *216:22 *222:10 0.00028782
60 *219:49 *222:30 0.000171029
61 *221:74 *222:30 0.000209221
*RES
1 *1565:Q *222:10 37.1929 
2 *222:10 *222:30 36.0809 
3 *222:30 *222:34 5.44643 
4 *222:34 *222:36 58.9911 
5 *222:36 *1437:B1 17.2375 
6 *222:30 *1438:A 41.55 
7 *222:10 *1408:C 41.5143 
*END

*D_NET *223 0.0265656
*CONN
*I *1408:B I *D sky130_fd_sc_hd__and4_1
*I *1440:A I *D sky130_fd_sc_hd__or2_1
*I *1441:A I *D sky130_fd_sc_hd__nand2_1
*I *1566:Q O *D sky130_fd_sc_hd__dfrtp_2
*CAP
1 *1408:B 0.00195764
2 *1440:A 0.000550394
3 *1441:A 0.000258119
4 *1566:Q 0
5 *223:35 0.00538457
6 *223:6 0.00313466
7 *1408:B *1408:A 0.000776003
8 *1408:B *224:18 0.000855269
9 *1397:A *1440:A 0.000178425
10 *1408:D *1408:B 5.33005e-05
11 *1425:B *1440:A 0.000221978
12 *1425:C *1440:A 0.000327906
13 *1447:B *223:35 0.000152711
14 *1466:A *1408:B 5.33005e-05
15 *1466:C *1408:B 1.95435e-05
16 *1480:A *1408:B 0.000160667
17 *1480:A *223:35 0.000336645
18 *1502:A *223:35 0
19 *1522:C *223:35 0.000446368
20 *44:26 *223:35 0.00353287
21 *85:31 *223:35 0.000181799
22 *87:66 *1408:B 0.00026023
23 *88:8 *1440:A 0.00032727
24 *96:8 *1408:B 6.71327e-05
25 *100:10 *223:35 0.000112404
26 *102:26 *223:35 0.00019223
27 *106:55 *223:35 0.000670375
28 *121:12 *1440:A 0.000961923
29 *122:8 *1441:A 0.000312767
30 *123:12 *1408:B 8.31087e-05
31 *123:12 *223:35 7.97841e-05
32 *127:24 *223:35 1.28958e-05
33 *134:8 *1440:A 8.14387e-05
34 *135:14 *223:35 3.05384e-05
35 *140:8 *1408:B 0.000136682
36 *170:45 *1441:A 0.000314416
37 *182:18 *223:35 0.000103012
38 *182:48 *223:35 2.03928e-05
39 *187:69 *1441:A 0.000241987
40 *187:69 *223:35 0.000636516
41 *200:129 *1440:A 0.00130626
42 *204:10 *223:35 0.000119588
43 *204:21 *223:35 1.01241e-05
44 *204:38 *223:35 0.000317223
45 *209:60 *1441:A 0.000446157
46 *209:60 *223:35 0.00102065
47 *218:20 *1441:A 0
48 *218:20 *223:35 0.000118344
*RES
1 *1566:Q *223:6 13.8 
2 *223:6 *1441:A 22.6929 
3 *223:6 *223:35 43.0611 
4 *223:35 *1440:A 35.3179 
5 *223:35 *1408:B 46.8536 
*END

*D_NET *224 0.0220351
*CONN
*I *1408:A I *D sky130_fd_sc_hd__and4_1
*I *1444:A I *D sky130_fd_sc_hd__inv_2
*I *1567:Q O *D sky130_fd_sc_hd__dfrtp_2
*CAP
1 *1408:A 0.000635205
2 *1444:A 0.00025608
3 *1567:Q 0.000622449
4 *224:18 0.00201613
5 *224:12 0.00261778
6 *224:8 0.00211538
7 *224:18 *225:71 0.00028814
8 *1408:B *1408:A 0.000776003
9 *1408:B *224:18 0.000855269
10 *1460:A *224:12 7.05143e-06
11 *1464:A1 *224:12 1.7897e-05
12 *1466:A *224:18 5.33005e-05
13 *1502:A *224:12 0.00020996
14 *1502:A *224:18 0.000209037
15 *1580:RESET_B *1444:A 0.000136676
16 *1594:A *224:12 2.26055e-05
17 *34:18 *1408:A 0.000474576
18 *34:18 *224:18 0.000588145
19 *86:18 *224:12 0.000158831
20 *87:10 *224:12 0.00298458
21 *87:26 *224:12 0.000167801
22 *87:26 *224:18 0.000171572
23 *87:66 *224:18 0.00107266
24 *93:55 *224:8 0.000290967
25 *96:8 *1408:A 5.33005e-05
26 *106:14 *224:12 0.000444843
27 *124:14 *1444:A 9.41642e-05
28 *126:16 *224:12 0.000347662
29 *126:16 *224:18 9.98998e-06
30 *135:14 *224:12 0.00214936
31 *155:22 *224:18 0.000309515
32 *155:57 *224:18 0.000141592
33 *185:8 *224:18 0.00105889
34 *203:45 *224:12 1.55238e-05
35 *203:45 *224:18 0.000161858
36 *213:33 *1444:A 0.000372579
37 *222:10 *1444:A 0.000108282
38 *222:30 *224:12 1.94945e-05
*RES
1 *1567:Q *224:8 21.7286 
2 *224:8 *224:12 49.1875 
3 *224:12 *224:18 42.0982 
4 *224:18 *1444:A 24.6393 
5 *224:18 *1408:A 24.6393 
*END

*D_NET *225 0.0291759
*CONN
*I *1450:A1 I *D sky130_fd_sc_hd__a21oi_2
*I *1414:A1 I *D sky130_fd_sc_hd__o31a_1
*I *1447:A I *D sky130_fd_sc_hd__nand2_1
*I *1451:B I *D sky130_fd_sc_hd__and4_4
*I *1446:A I *D sky130_fd_sc_hd__or2_1
*I *1568:Q O *D sky130_fd_sc_hd__dfrtp_4
*CAP
1 *1450:A1 0
2 *1414:A1 0.000768329
3 *1447:A 2.04426e-05
4 *1451:B 0.00108289
5 *1446:A 0
6 *1568:Q 0.00223888
7 *225:75 0.00131846
8 *225:71 0.00170912
9 *225:30 0.00164308
10 *225:16 0.000647178
11 *225:14 0.00346441
12 *1451:B *1451:A 9.41642e-05
13 *225:75 *226:20 0.000136676
14 *1412:A_N *1451:B 2.22674e-05
15 *1414:A2 *1414:A1 0.000619418
16 *1414:B1 *1414:A1 0.000834363
17 *1433:B *1414:A1 0.000554596
18 *1438:A *1447:A 2.59355e-05
19 *1442:C *225:71 3.98568e-05
20 *1445:C1 *225:75 0.000221815
21 *1446:B *225:30 9.66977e-05
22 *1449:A *1451:B 9.87259e-05
23 *1464:A1 *225:16 6.82922e-05
24 *1464:A1 *225:30 7.05982e-05
25 *1464:A1 *225:71 9.1881e-05
26 *1476:A2 *225:30 0.000342302
27 *1522:C *225:71 0
28 *1555:A *225:14 9.41642e-05
29 *1561:RESET_B *225:30 0.00034395
30 *1563:RESET_B *225:30 0.000745225
31 *1566:RESET_B *1451:B 4.51632e-05
32 *1568:CLK *225:14 0.000159653
33 *1568:RESET_B *225:14 0.000180438
34 *1581:RESET_B *1414:A1 0.000182137
35 *31:12 *225:71 0
36 *45:18 *1451:B 0.000169603
37 *45:28 *225:14 5.42483e-05
38 *47:64 *225:30 0.000100823
39 *65:24 *1447:A 5.33005e-05
40 *87:26 *225:71 0.000171572
41 *87:66 *225:71 0.000738312
42 *97:53 *1414:A1 1.08359e-05
43 *99:24 *1414:A1 0.000834363
44 *100:10 *225:30 0.000881377
45 *102:26 *225:71 0.0001897
46 *104:22 *1451:B 0.000171913
47 *104:22 *225:30 0.000184246
48 *110:16 *1414:A1 0.000145753
49 *115:106 *225:71 8.43535e-06
50 *115:106 *225:75 0.000689885
51 *120:42 *1451:B 0.000992592
52 *123:12 *225:71 0.000103702
53 *125:12 *1451:B 5.45307e-05
54 *125:12 *225:16 0.000144038
55 *125:12 *225:30 0.000284793
56 *125:12 *225:71 0.000639291
57 *139:33 *225:71 0.000667063
58 *143:41 *1451:B 3.97677e-05
59 *165:16 *1451:B 2.55889e-05
60 *175:62 *225:75 4.58194e-05
61 *175:70 *225:75 0.00042824
62 *176:41 *225:14 0.00026353
63 *182:48 *225:71 0.000158874
64 *188:105 *225:71 0.000175892
65 *194:14 *225:14 0.00207674
66 *203:45 *225:71 0.000209923
67 *205:30 *1451:B 0
68 *205:61 *1451:B 0
69 *209:85 *225:71 0.000114517
70 *210:22 *1451:B 0
71 *210:22 *225:30 6.39886e-05
72 *221:98 *1414:A1 3.34295e-05
73 *224:18 *225:71 0.00028814
*RES
1 *1568:Q *225:14 48.9964 
2 *225:14 *225:16 1.94643 
3 *225:16 *225:30 33.5 
4 *225:30 *1446:A 9.3 
5 *225:30 *1451:B 38.7464 
6 *225:16 *1447:A 14.3357 
7 *225:14 *225:71 36.75 
8 *225:71 *225:75 15.3393 
9 *225:75 *1414:A1 43.6571 
10 *225:75 *1450:A1 9.3 
*END

*D_NET *226 0.0246881
*CONN
*I *1411:C I *D sky130_fd_sc_hd__or4_2
*I *1451:A I *D sky130_fd_sc_hd__and4_4
*I *1450:B1 I *D sky130_fd_sc_hd__a21oi_2
*I *1569:Q O *D sky130_fd_sc_hd__dfrtp_2
*CAP
1 *1411:C 0.000627636
2 *1451:A 0.00058115
3 *1450:B1 0
4 *1569:Q 0.000845008
5 *226:31 0.00271221
6 *226:20 0.00106779
7 *226:12 0.00341622
8 *1394:B *226:31 0.000185118
9 *1411:B *1411:C 0.000106848
10 *1451:B *1451:A 9.41642e-05
11 *1482:B *1411:C 5.20361e-05
12 *1517:D1 *226:12 0.000275357
13 *1517:D1 *226:31 0.000221544
14 *1556:A *1411:C 0.000143583
15 *1577:D *1411:C 0.000808371
16 *1577:RESET_B *1451:A 0.000151046
17 *1577:RESET_B *226:31 0.000130221
18 *1588:D *226:12 0.000284299
19 *1588:RESET_B *226:12 0.000172092
20 *42:8 *226:31 0.00114635
21 *45:18 *1451:A 0.000111512
22 *47:39 *1451:A 0
23 *57:16 *226:31 0.0024837
24 *76:20 *1411:C 0.000413893
25 *92:14 *226:20 0.00112096
26 *96:33 *1451:A 0.000353364
27 *102:26 *1451:A 0.000223177
28 *104:22 *1451:A 0.000261524
29 *127:24 *226:20 0.000114398
30 *129:35 *1451:A 0.000143173
31 *129:120 *226:20 0
32 *142:28 *1451:A 9.58356e-05
33 *143:41 *1451:A 0.000219711
34 *146:10 *226:20 0.00255537
35 *163:56 *1451:A 0.000710862
36 *175:70 *226:20 0.000136676
37 *180:143 *226:20 0.000170654
38 *181:51 *1411:C 0.000709959
39 *188:105 *226:20 5.13222e-05
40 *189:42 *226:12 0.000140188
41 *190:35 *226:31 5.8697e-05
42 *191:72 *226:20 0
43 *196:43 *1451:A 9.15842e-06
44 *196:43 *226:31 0.000250622
45 *202:20 *1411:C 0.000659761
46 *207:20 *226:20 0.000503551
47 *207:89 *226:20 4.22135e-06
48 *207:122 *226:20 2.80951e-05
49 *225:75 *226:20 0.000136676
*RES
1 *1569:Q *226:12 32.8714 
2 *226:12 *226:20 43.875 
3 *226:20 *1450:B1 9.3 
4 *226:12 *226:31 39.3036 
5 *226:31 *1451:A 32.4964 
6 *226:31 *1411:C 34.0679 
*END

*D_NET *227 0.0351822
*CONN
*I *1401:A1 I *D sky130_fd_sc_hd__a21oi_1
*I *1398:A1_N I *D sky130_fd_sc_hd__o2bb2a_1
*I *1404:A1 I *D sky130_fd_sc_hd__a21oi_1
*I *1392:A I *D sky130_fd_sc_hd__and3_2
*I *1403:A1 I *D sky130_fd_sc_hd__a21oi_1
*I *1587:Q O *D sky130_fd_sc_hd__dfrtp_4
*CAP
1 *1401:A1 0.0002072
2 *1398:A1_N 0.000204578
3 *1404:A1 0.000280723
4 *1392:A 0.00152024
5 *1403:A1 0.00103455
6 *1587:Q 0.00111397
7 *227:97 0.00238256
8 *227:89 0.00309144
9 *227:59 0.00253442
10 *227:53 0.00179295
11 *227:51 0.00142507
12 *227:26 0.00322038
13 *1398:B2 *1398:A1_N 0.000195073
14 *1398:B2 *227:97 0.000210482
15 *1404:A2 *1404:A1 0.000254415
16 *1413:A_N *1403:A1 5.52238e-05
17 *1413:C *1403:A1 0.000187572
18 *1413:C *227:26 8.55871e-05
19 *1413:D *1403:A1 2.02681e-05
20 *1413:D *227:26 5.35309e-05
21 *1416:B1 *227:53 5.43491e-05
22 *1424:A *227:26 9.87983e-06
23 *1459:B *1401:A1 2.16719e-05
24 *1459:C *227:53 0.000451535
25 *1459:C *227:59 0.000191403
26 *1490:C *1392:A 0
27 *1494:B *227:97 0
28 *1510:B *227:97 0
29 *1522:C *227:26 4.29498e-05
30 *1533:A *227:97 0.000911111
31 *1566:D *1392:A 0
32 *1566:RESET_B *1392:A 1.21732e-06
33 *1573:RESET_B *1392:A 0.000972193
34 *1592:A *227:97 0.000885625
35 *1595:A *1392:A 0.000288958
36 *1599:A *227:26 5.43273e-05
37 *24:14 *227:53 9.56043e-05
38 *47:33 *1392:A 0.00037411
39 *47:105 *227:26 2.07592e-05
40 *55:10 *227:97 5.13545e-05
41 *58:20 *227:97 0.000342509
42 *70:10 *227:97 0
43 *84:26 *1398:A1_N 0.000378316
44 *85:31 *227:26 1.00887e-05
45 *89:16 *227:51 0.000300135
46 *97:22 *227:51 4.02038e-05
47 *97:44 *1403:A1 6.35798e-05
48 *101:12 *1403:A1 2.62426e-05
49 *103:33 *227:53 7.85957e-05
50 *106:55 *227:26 0.000166237
51 *122:32 *227:26 0.000149912
52 *134:40 *227:53 0.000308599
53 *137:24 *227:51 0.000198909
54 *138:10 *227:51 0.00225619
55 *140:12 *227:51 0.00165159
56 *145:16 *227:53 0
57 *145:16 *227:59 0
58 *154:16 *1392:A 0.00106851
59 *166:26 *1392:A 0.000349705
60 *170:45 *1392:A 0.000125724
61 *175:18 *1401:A1 0
62 *185:20 *1403:A1 0.000177934
63 *187:14 *1403:A1 5.49489e-05
64 *187:48 *1401:A1 0.000143967
65 *187:61 *1404:A1 0.000135028
66 *187:61 *227:59 0.000802773
67 *187:117 *1403:A1 0.000595507
68 *190:69 *227:26 1.4684e-05
69 *193:26 *1392:A 0.000121573
70 *201:30 *227:89 0.00020024
71 *201:30 *227:97 0.000213479
72 *202:14 *227:51 0.000178847
73 *208:81 *227:26 0.000138898
74 *210:36 *1392:A 0.000155025
75 *212:30 *1403:A1 0.000135028
76 *212:71 *227:97 0
77 *214:37 *1401:A1 9.63832e-05
78 *218:20 *1392:A 0.000156589
79 *221:74 *227:26 4.90016e-05
*RES
1 *1587:Q *227:26 32.4392 
2 *227:26 *1403:A1 36.8179 
3 *227:26 *227:51 46.0714 
4 *227:51 *227:53 9.83929 
5 *227:53 *227:59 14.9821 
6 *227:59 *1392:A 43.9412 
7 *227:59 *1404:A1 13.1214 
8 *227:53 *227:89 12.8393 
9 *227:89 *227:97 46.5179 
10 *227:97 *1398:A1_N 15.733 
11 *227:89 *1401:A1 21.8 
*END
