*SPEF "ieee 1481-1999"
*DESIGN "five"
*DATE "20:28:10 Sunday June 08, 2025"
*VENDOR "The OpenROAD Project"
*PROGRAM "OpenROAD"
*VERSION "b16bda7e82721d10566ff7e2b68f1ff0be9f9e38"
*DESIGN_FLOW "NAME_SCOPE LOCAL" "PIN_CAP NONE"
*DIVIDER /
*DELIMITER :
*BUS_DELIMITER []
*T_UNIT 1 NS
*C_UNIT 1 PF
*R_UNIT 1 OHM
*L_UNIT 1 HENRY

*NAME_MAP
*3 net30
*4 net31
*5 net32
*6 net33
*7 clk
*8 control
*9 reset
*10 net41
*11 net8
*12 net9
*13 net10
*14 net11
*15 net12
*16 net13
*17 net14
*18 net15
*19 net16
*20 net17
*21 net42
*22 net18
*23 net19
*24 net20
*25 net21
*26 net22
*27 net23
*28 net24
*29 net25
*30 net26
*31 net27
*32 net43
*33 net28
*34 net29
*35 net1
*36 net2
*37 net3
*38 net4
*39 net5
*40 net6
*41 net7
*42 net34
*43 net35
*44 net36
*45 net37
*46 net38
*47 net39
*48 net40
*49 FILLER_0_0_105
*50 FILLER_0_0_109
*51 FILLER_0_0_113
*52 FILLER_0_0_125
*53 FILLER_0_0_137
*54 FILLER_0_0_141
*55 FILLER_0_0_15
*56 FILLER_0_0_153
*57 FILLER_0_0_165
*58 FILLER_0_0_169
*59 FILLER_0_0_181
*60 FILLER_0_0_186
*61 FILLER_0_0_194
*62 FILLER_0_0_197
*63 FILLER_0_0_209
*64 FILLER_0_0_221
*65 FILLER_0_0_225
*66 FILLER_0_0_237
*67 FILLER_0_0_249
*68 FILLER_0_0_253
*69 FILLER_0_0_259
*70 FILLER_0_0_263
*71 FILLER_0_0_27
*72 FILLER_0_0_275
*73 FILLER_0_0_279
*74 FILLER_0_0_281
*75 FILLER_0_0_293
*76 FILLER_0_0_3
*77 FILLER_0_0_305
*78 FILLER_0_0_309
*79 FILLER_0_0_32
*80 FILLER_0_0_321
*81 FILLER_0_0_333
*82 FILLER_0_0_340
*83 FILLER_0_0_352
*84 FILLER_0_0_365
*85 FILLER_0_0_377
*86 FILLER_0_0_389
*87 FILLER_0_0_393
*88 FILLER_0_0_405
*89 FILLER_0_0_413
*90 FILLER_0_0_417
*91 FILLER_0_0_421
*92 FILLER_0_0_433
*93 FILLER_0_0_44
*94 FILLER_0_0_445
*95 FILLER_0_0_449
*96 FILLER_0_0_461
*97 FILLER_0_0_473
*98 FILLER_0_0_477
*99 FILLER_0_0_489
*100 FILLER_0_0_494
*101 FILLER_0_0_502
*102 FILLER_0_0_505
*103 FILLER_0_0_513
*104 FILLER_0_0_57
*105 FILLER_0_0_69
*106 FILLER_0_0_81
*107 FILLER_0_0_85
*108 FILLER_0_0_97
*109 FILLER_0_10_109
*110 FILLER_0_10_121
*111 FILLER_0_10_133
*112 FILLER_0_10_139
*113 FILLER_0_10_141
*114 FILLER_0_10_15
*115 FILLER_0_10_153
*116 FILLER_0_10_165
*117 FILLER_0_10_177
*118 FILLER_0_10_189
*119 FILLER_0_10_195
*120 FILLER_0_10_197
*121 FILLER_0_10_209
*122 FILLER_0_10_221
*123 FILLER_0_10_233
*124 FILLER_0_10_245
*125 FILLER_0_10_251
*126 FILLER_0_10_253
*127 FILLER_0_10_265
*128 FILLER_0_10_27
*129 FILLER_0_10_277
*130 FILLER_0_10_289
*131 FILLER_0_10_29
*132 FILLER_0_10_3
*133 FILLER_0_10_301
*134 FILLER_0_10_307
*135 FILLER_0_10_309
*136 FILLER_0_10_321
*137 FILLER_0_10_333
*138 FILLER_0_10_345
*139 FILLER_0_10_357
*140 FILLER_0_10_363
*141 FILLER_0_10_365
*142 FILLER_0_10_377
*143 FILLER_0_10_389
*144 FILLER_0_10_401
*145 FILLER_0_10_41
*146 FILLER_0_10_413
*147 FILLER_0_10_419
*148 FILLER_0_10_421
*149 FILLER_0_10_433
*150 FILLER_0_10_445
*151 FILLER_0_10_457
*152 FILLER_0_10_469
*153 FILLER_0_10_475
*154 FILLER_0_10_477
*155 FILLER_0_10_489
*156 FILLER_0_10_501
*157 FILLER_0_10_513
*158 FILLER_0_10_53
*159 FILLER_0_10_65
*160 FILLER_0_10_77
*161 FILLER_0_10_83
*162 FILLER_0_10_85
*163 FILLER_0_10_97
*164 FILLER_0_11_105
*165 FILLER_0_11_111
*166 FILLER_0_11_113
*167 FILLER_0_11_125
*168 FILLER_0_11_137
*169 FILLER_0_11_149
*170 FILLER_0_11_15
*171 FILLER_0_11_161
*172 FILLER_0_11_167
*173 FILLER_0_11_169
*174 FILLER_0_11_181
*175 FILLER_0_11_193
*176 FILLER_0_11_205
*177 FILLER_0_11_217
*178 FILLER_0_11_223
*179 FILLER_0_11_225
*180 FILLER_0_11_237
*181 FILLER_0_11_249
*182 FILLER_0_11_261
*183 FILLER_0_11_27
*184 FILLER_0_11_273
*185 FILLER_0_11_279
*186 FILLER_0_11_281
*187 FILLER_0_11_293
*188 FILLER_0_11_3
*189 FILLER_0_11_305
*190 FILLER_0_11_317
*191 FILLER_0_11_329
*192 FILLER_0_11_335
*193 FILLER_0_11_337
*194 FILLER_0_11_349
*195 FILLER_0_11_361
*196 FILLER_0_11_373
*197 FILLER_0_11_385
*198 FILLER_0_11_39
*199 FILLER_0_11_391
*200 FILLER_0_11_393
*201 FILLER_0_11_405
*202 FILLER_0_11_417
*203 FILLER_0_11_429
*204 FILLER_0_11_441
*205 FILLER_0_11_447
*206 FILLER_0_11_449
*207 FILLER_0_11_461
*208 FILLER_0_11_473
*209 FILLER_0_11_485
*210 FILLER_0_11_497
*211 FILLER_0_11_503
*212 FILLER_0_11_505
*213 FILLER_0_11_51
*214 FILLER_0_11_55
*215 FILLER_0_11_57
*216 FILLER_0_11_69
*217 FILLER_0_11_81
*218 FILLER_0_11_93
*219 FILLER_0_12_109
*220 FILLER_0_12_121
*221 FILLER_0_12_133
*222 FILLER_0_12_139
*223 FILLER_0_12_141
*224 FILLER_0_12_15
*225 FILLER_0_12_153
*226 FILLER_0_12_165
*227 FILLER_0_12_177
*228 FILLER_0_12_189
*229 FILLER_0_12_195
*230 FILLER_0_12_197
*231 FILLER_0_12_209
*232 FILLER_0_12_221
*233 FILLER_0_12_233
*234 FILLER_0_12_245
*235 FILLER_0_12_251
*236 FILLER_0_12_253
*237 FILLER_0_12_265
*238 FILLER_0_12_27
*239 FILLER_0_12_277
*240 FILLER_0_12_289
*241 FILLER_0_12_29
*242 FILLER_0_12_3
*243 FILLER_0_12_301
*244 FILLER_0_12_307
*245 FILLER_0_12_309
*246 FILLER_0_12_321
*247 FILLER_0_12_333
*248 FILLER_0_12_345
*249 FILLER_0_12_357
*250 FILLER_0_12_363
*251 FILLER_0_12_365
*252 FILLER_0_12_377
*253 FILLER_0_12_389
*254 FILLER_0_12_401
*255 FILLER_0_12_41
*256 FILLER_0_12_413
*257 FILLER_0_12_419
*258 FILLER_0_12_421
*259 FILLER_0_12_433
*260 FILLER_0_12_445
*261 FILLER_0_12_457
*262 FILLER_0_12_469
*263 FILLER_0_12_475
*264 FILLER_0_12_477
*265 FILLER_0_12_489
*266 FILLER_0_12_501
*267 FILLER_0_12_513
*268 FILLER_0_12_53
*269 FILLER_0_12_65
*270 FILLER_0_12_77
*271 FILLER_0_12_83
*272 FILLER_0_12_85
*273 FILLER_0_12_97
*274 FILLER_0_13_105
*275 FILLER_0_13_111
*276 FILLER_0_13_113
*277 FILLER_0_13_125
*278 FILLER_0_13_137
*279 FILLER_0_13_149
*280 FILLER_0_13_15
*281 FILLER_0_13_161
*282 FILLER_0_13_167
*283 FILLER_0_13_169
*284 FILLER_0_13_181
*285 FILLER_0_13_193
*286 FILLER_0_13_205
*287 FILLER_0_13_217
*288 FILLER_0_13_223
*289 FILLER_0_13_225
*290 FILLER_0_13_237
*291 FILLER_0_13_249
*292 FILLER_0_13_261
*293 FILLER_0_13_27
*294 FILLER_0_13_273
*295 FILLER_0_13_279
*296 FILLER_0_13_281
*297 FILLER_0_13_293
*298 FILLER_0_13_3
*299 FILLER_0_13_305
*300 FILLER_0_13_317
*301 FILLER_0_13_329
*302 FILLER_0_13_335
*303 FILLER_0_13_337
*304 FILLER_0_13_349
*305 FILLER_0_13_361
*306 FILLER_0_13_373
*307 FILLER_0_13_385
*308 FILLER_0_13_39
*309 FILLER_0_13_391
*310 FILLER_0_13_393
*311 FILLER_0_13_405
*312 FILLER_0_13_417
*313 FILLER_0_13_429
*314 FILLER_0_13_441
*315 FILLER_0_13_447
*316 FILLER_0_13_449
*317 FILLER_0_13_461
*318 FILLER_0_13_473
*319 FILLER_0_13_485
*320 FILLER_0_13_497
*321 FILLER_0_13_503
*322 FILLER_0_13_505
*323 FILLER_0_13_51
*324 FILLER_0_13_55
*325 FILLER_0_13_57
*326 FILLER_0_13_69
*327 FILLER_0_13_81
*328 FILLER_0_13_93
*329 FILLER_0_14_109
*330 FILLER_0_14_121
*331 FILLER_0_14_133
*332 FILLER_0_14_139
*333 FILLER_0_14_141
*334 FILLER_0_14_15
*335 FILLER_0_14_153
*336 FILLER_0_14_165
*337 FILLER_0_14_177
*338 FILLER_0_14_189
*339 FILLER_0_14_195
*340 FILLER_0_14_197
*341 FILLER_0_14_209
*342 FILLER_0_14_221
*343 FILLER_0_14_233
*344 FILLER_0_14_245
*345 FILLER_0_14_251
*346 FILLER_0_14_253
*347 FILLER_0_14_265
*348 FILLER_0_14_27
*349 FILLER_0_14_277
*350 FILLER_0_14_289
*351 FILLER_0_14_29
*352 FILLER_0_14_3
*353 FILLER_0_14_301
*354 FILLER_0_14_307
*355 FILLER_0_14_309
*356 FILLER_0_14_321
*357 FILLER_0_14_333
*358 FILLER_0_14_345
*359 FILLER_0_14_357
*360 FILLER_0_14_363
*361 FILLER_0_14_365
*362 FILLER_0_14_377
*363 FILLER_0_14_389
*364 FILLER_0_14_401
*365 FILLER_0_14_41
*366 FILLER_0_14_413
*367 FILLER_0_14_419
*368 FILLER_0_14_421
*369 FILLER_0_14_433
*370 FILLER_0_14_445
*371 FILLER_0_14_457
*372 FILLER_0_14_469
*373 FILLER_0_14_475
*374 FILLER_0_14_477
*375 FILLER_0_14_489
*376 FILLER_0_14_501
*377 FILLER_0_14_513
*378 FILLER_0_14_53
*379 FILLER_0_14_65
*380 FILLER_0_14_77
*381 FILLER_0_14_83
*382 FILLER_0_14_85
*383 FILLER_0_14_97
*384 FILLER_0_15_105
*385 FILLER_0_15_111
*386 FILLER_0_15_113
*387 FILLER_0_15_125
*388 FILLER_0_15_137
*389 FILLER_0_15_149
*390 FILLER_0_15_15
*391 FILLER_0_15_161
*392 FILLER_0_15_167
*393 FILLER_0_15_169
*394 FILLER_0_15_181
*395 FILLER_0_15_193
*396 FILLER_0_15_205
*397 FILLER_0_15_217
*398 FILLER_0_15_223
*399 FILLER_0_15_225
*400 FILLER_0_15_237
*401 FILLER_0_15_249
*402 FILLER_0_15_261
*403 FILLER_0_15_27
*404 FILLER_0_15_273
*405 FILLER_0_15_279
*406 FILLER_0_15_281
*407 FILLER_0_15_293
*408 FILLER_0_15_3
*409 FILLER_0_15_305
*410 FILLER_0_15_317
*411 FILLER_0_15_329
*412 FILLER_0_15_335
*413 FILLER_0_15_337
*414 FILLER_0_15_349
*415 FILLER_0_15_361
*416 FILLER_0_15_373
*417 FILLER_0_15_385
*418 FILLER_0_15_39
*419 FILLER_0_15_391
*420 FILLER_0_15_393
*421 FILLER_0_15_405
*422 FILLER_0_15_417
*423 FILLER_0_15_429
*424 FILLER_0_15_441
*425 FILLER_0_15_447
*426 FILLER_0_15_449
*427 FILLER_0_15_461
*428 FILLER_0_15_473
*429 FILLER_0_15_485
*430 FILLER_0_15_497
*431 FILLER_0_15_503
*432 FILLER_0_15_505
*433 FILLER_0_15_51
*434 FILLER_0_15_513
*435 FILLER_0_15_55
*436 FILLER_0_15_57
*437 FILLER_0_15_69
*438 FILLER_0_15_81
*439 FILLER_0_15_93
*440 FILLER_0_16_109
*441 FILLER_0_16_121
*442 FILLER_0_16_133
*443 FILLER_0_16_139
*444 FILLER_0_16_141
*445 FILLER_0_16_15
*446 FILLER_0_16_153
*447 FILLER_0_16_165
*448 FILLER_0_16_177
*449 FILLER_0_16_189
*450 FILLER_0_16_195
*451 FILLER_0_16_197
*452 FILLER_0_16_209
*453 FILLER_0_16_221
*454 FILLER_0_16_233
*455 FILLER_0_16_245
*456 FILLER_0_16_251
*457 FILLER_0_16_253
*458 FILLER_0_16_265
*459 FILLER_0_16_27
*460 FILLER_0_16_277
*461 FILLER_0_16_289
*462 FILLER_0_16_29
*463 FILLER_0_16_3
*464 FILLER_0_16_301
*465 FILLER_0_16_307
*466 FILLER_0_16_309
*467 FILLER_0_16_321
*468 FILLER_0_16_333
*469 FILLER_0_16_345
*470 FILLER_0_16_357
*471 FILLER_0_16_363
*472 FILLER_0_16_365
*473 FILLER_0_16_377
*474 FILLER_0_16_389
*475 FILLER_0_16_401
*476 FILLER_0_16_41
*477 FILLER_0_16_413
*478 FILLER_0_16_419
*479 FILLER_0_16_421
*480 FILLER_0_16_433
*481 FILLER_0_16_445
*482 FILLER_0_16_457
*483 FILLER_0_16_469
*484 FILLER_0_16_475
*485 FILLER_0_16_477
*486 FILLER_0_16_489
*487 FILLER_0_16_501
*488 FILLER_0_16_53
*489 FILLER_0_16_65
*490 FILLER_0_16_77
*491 FILLER_0_16_83
*492 FILLER_0_16_85
*493 FILLER_0_16_97
*494 FILLER_0_17_105
*495 FILLER_0_17_111
*496 FILLER_0_17_113
*497 FILLER_0_17_125
*498 FILLER_0_17_137
*499 FILLER_0_17_149
*500 FILLER_0_17_15
*501 FILLER_0_17_161
*502 FILLER_0_17_167
*503 FILLER_0_17_169
*504 FILLER_0_17_181
*505 FILLER_0_17_193
*506 FILLER_0_17_205
*507 FILLER_0_17_217
*508 FILLER_0_17_223
*509 FILLER_0_17_225
*510 FILLER_0_17_237
*511 FILLER_0_17_249
*512 FILLER_0_17_261
*513 FILLER_0_17_27
*514 FILLER_0_17_273
*515 FILLER_0_17_279
*516 FILLER_0_17_281
*517 FILLER_0_17_293
*518 FILLER_0_17_3
*519 FILLER_0_17_305
*520 FILLER_0_17_317
*521 FILLER_0_17_329
*522 FILLER_0_17_335
*523 FILLER_0_17_337
*524 FILLER_0_17_349
*525 FILLER_0_17_361
*526 FILLER_0_17_373
*527 FILLER_0_17_385
*528 FILLER_0_17_39
*529 FILLER_0_17_391
*530 FILLER_0_17_393
*531 FILLER_0_17_405
*532 FILLER_0_17_417
*533 FILLER_0_17_429
*534 FILLER_0_17_441
*535 FILLER_0_17_447
*536 FILLER_0_17_449
*537 FILLER_0_17_461
*538 FILLER_0_17_473
*539 FILLER_0_17_485
*540 FILLER_0_17_497
*541 FILLER_0_17_503
*542 FILLER_0_17_505
*543 FILLER_0_17_51
*544 FILLER_0_17_513
*545 FILLER_0_17_55
*546 FILLER_0_17_57
*547 FILLER_0_17_69
*548 FILLER_0_17_81
*549 FILLER_0_17_93
*550 FILLER_0_18_109
*551 FILLER_0_18_121
*552 FILLER_0_18_133
*553 FILLER_0_18_139
*554 FILLER_0_18_141
*555 FILLER_0_18_15
*556 FILLER_0_18_153
*557 FILLER_0_18_165
*558 FILLER_0_18_177
*559 FILLER_0_18_189
*560 FILLER_0_18_195
*561 FILLER_0_18_197
*562 FILLER_0_18_209
*563 FILLER_0_18_221
*564 FILLER_0_18_233
*565 FILLER_0_18_245
*566 FILLER_0_18_251
*567 FILLER_0_18_253
*568 FILLER_0_18_265
*569 FILLER_0_18_27
*570 FILLER_0_18_277
*571 FILLER_0_18_289
*572 FILLER_0_18_29
*573 FILLER_0_18_3
*574 FILLER_0_18_301
*575 FILLER_0_18_307
*576 FILLER_0_18_309
*577 FILLER_0_18_321
*578 FILLER_0_18_333
*579 FILLER_0_18_345
*580 FILLER_0_18_357
*581 FILLER_0_18_363
*582 FILLER_0_18_365
*583 FILLER_0_18_377
*584 FILLER_0_18_389
*585 FILLER_0_18_401
*586 FILLER_0_18_41
*587 FILLER_0_18_413
*588 FILLER_0_18_419
*589 FILLER_0_18_421
*590 FILLER_0_18_433
*591 FILLER_0_18_445
*592 FILLER_0_18_457
*593 FILLER_0_18_469
*594 FILLER_0_18_475
*595 FILLER_0_18_477
*596 FILLER_0_18_489
*597 FILLER_0_18_501
*598 FILLER_0_18_53
*599 FILLER_0_18_65
*600 FILLER_0_18_77
*601 FILLER_0_18_83
*602 FILLER_0_18_85
*603 FILLER_0_18_97
*604 FILLER_0_19_105
*605 FILLER_0_19_111
*606 FILLER_0_19_113
*607 FILLER_0_19_125
*608 FILLER_0_19_137
*609 FILLER_0_19_149
*610 FILLER_0_19_15
*611 FILLER_0_19_161
*612 FILLER_0_19_167
*613 FILLER_0_19_169
*614 FILLER_0_19_181
*615 FILLER_0_19_193
*616 FILLER_0_19_205
*617 FILLER_0_19_217
*618 FILLER_0_19_223
*619 FILLER_0_19_225
*620 FILLER_0_19_237
*621 FILLER_0_19_249
*622 FILLER_0_19_261
*623 FILLER_0_19_27
*624 FILLER_0_19_273
*625 FILLER_0_19_279
*626 FILLER_0_19_281
*627 FILLER_0_19_293
*628 FILLER_0_19_3
*629 FILLER_0_19_305
*630 FILLER_0_19_317
*631 FILLER_0_19_329
*632 FILLER_0_19_335
*633 FILLER_0_19_337
*634 FILLER_0_19_349
*635 FILLER_0_19_361
*636 FILLER_0_19_373
*637 FILLER_0_19_385
*638 FILLER_0_19_39
*639 FILLER_0_19_391
*640 FILLER_0_19_393
*641 FILLER_0_19_405
*642 FILLER_0_19_417
*643 FILLER_0_19_429
*644 FILLER_0_19_441
*645 FILLER_0_19_447
*646 FILLER_0_19_449
*647 FILLER_0_19_461
*648 FILLER_0_19_473
*649 FILLER_0_19_485
*650 FILLER_0_19_497
*651 FILLER_0_19_503
*652 FILLER_0_19_505
*653 FILLER_0_19_51
*654 FILLER_0_19_513
*655 FILLER_0_19_55
*656 FILLER_0_19_57
*657 FILLER_0_19_69
*658 FILLER_0_19_81
*659 FILLER_0_19_93
*660 FILLER_0_1_105
*661 FILLER_0_1_111
*662 FILLER_0_1_113
*663 FILLER_0_1_125
*664 FILLER_0_1_137
*665 FILLER_0_1_149
*666 FILLER_0_1_15
*667 FILLER_0_1_161
*668 FILLER_0_1_167
*669 FILLER_0_1_169
*670 FILLER_0_1_181
*671 FILLER_0_1_193
*672 FILLER_0_1_205
*673 FILLER_0_1_217
*674 FILLER_0_1_223
*675 FILLER_0_1_225
*676 FILLER_0_1_237
*677 FILLER_0_1_249
*678 FILLER_0_1_261
*679 FILLER_0_1_27
*680 FILLER_0_1_273
*681 FILLER_0_1_279
*682 FILLER_0_1_281
*683 FILLER_0_1_293
*684 FILLER_0_1_3
*685 FILLER_0_1_305
*686 FILLER_0_1_317
*687 FILLER_0_1_329
*688 FILLER_0_1_335
*689 FILLER_0_1_337
*690 FILLER_0_1_349
*691 FILLER_0_1_361
*692 FILLER_0_1_373
*693 FILLER_0_1_385
*694 FILLER_0_1_39
*695 FILLER_0_1_391
*696 FILLER_0_1_393
*697 FILLER_0_1_405
*698 FILLER_0_1_417
*699 FILLER_0_1_429
*700 FILLER_0_1_441
*701 FILLER_0_1_447
*702 FILLER_0_1_449
*703 FILLER_0_1_461
*704 FILLER_0_1_473
*705 FILLER_0_1_485
*706 FILLER_0_1_497
*707 FILLER_0_1_503
*708 FILLER_0_1_505
*709 FILLER_0_1_51
*710 FILLER_0_1_513
*711 FILLER_0_1_55
*712 FILLER_0_1_57
*713 FILLER_0_1_69
*714 FILLER_0_1_81
*715 FILLER_0_1_93
*716 FILLER_0_20_109
*717 FILLER_0_20_121
*718 FILLER_0_20_133
*719 FILLER_0_20_139
*720 FILLER_0_20_141
*721 FILLER_0_20_15
*722 FILLER_0_20_153
*723 FILLER_0_20_165
*724 FILLER_0_20_177
*725 FILLER_0_20_189
*726 FILLER_0_20_195
*727 FILLER_0_20_197
*728 FILLER_0_20_209
*729 FILLER_0_20_221
*730 FILLER_0_20_233
*731 FILLER_0_20_245
*732 FILLER_0_20_251
*733 FILLER_0_20_253
*734 FILLER_0_20_265
*735 FILLER_0_20_27
*736 FILLER_0_20_277
*737 FILLER_0_20_289
*738 FILLER_0_20_29
*739 FILLER_0_20_3
*740 FILLER_0_20_301
*741 FILLER_0_20_307
*742 FILLER_0_20_309
*743 FILLER_0_20_321
*744 FILLER_0_20_333
*745 FILLER_0_20_345
*746 FILLER_0_20_357
*747 FILLER_0_20_363
*748 FILLER_0_20_365
*749 FILLER_0_20_377
*750 FILLER_0_20_389
*751 FILLER_0_20_401
*752 FILLER_0_20_41
*753 FILLER_0_20_413
*754 FILLER_0_20_419
*755 FILLER_0_20_421
*756 FILLER_0_20_433
*757 FILLER_0_20_445
*758 FILLER_0_20_457
*759 FILLER_0_20_469
*760 FILLER_0_20_475
*761 FILLER_0_20_477
*762 FILLER_0_20_489
*763 FILLER_0_20_501
*764 FILLER_0_20_513
*765 FILLER_0_20_53
*766 FILLER_0_20_65
*767 FILLER_0_20_77
*768 FILLER_0_20_83
*769 FILLER_0_20_85
*770 FILLER_0_20_97
*771 FILLER_0_21_105
*772 FILLER_0_21_111
*773 FILLER_0_21_113
*774 FILLER_0_21_125
*775 FILLER_0_21_137
*776 FILLER_0_21_149
*777 FILLER_0_21_15
*778 FILLER_0_21_161
*779 FILLER_0_21_167
*780 FILLER_0_21_169
*781 FILLER_0_21_181
*782 FILLER_0_21_193
*783 FILLER_0_21_205
*784 FILLER_0_21_217
*785 FILLER_0_21_223
*786 FILLER_0_21_225
*787 FILLER_0_21_237
*788 FILLER_0_21_249
*789 FILLER_0_21_261
*790 FILLER_0_21_27
*791 FILLER_0_21_273
*792 FILLER_0_21_279
*793 FILLER_0_21_281
*794 FILLER_0_21_293
*795 FILLER_0_21_3
*796 FILLER_0_21_305
*797 FILLER_0_21_317
*798 FILLER_0_21_329
*799 FILLER_0_21_335
*800 FILLER_0_21_337
*801 FILLER_0_21_349
*802 FILLER_0_21_361
*803 FILLER_0_21_373
*804 FILLER_0_21_385
*805 FILLER_0_21_39
*806 FILLER_0_21_391
*807 FILLER_0_21_393
*808 FILLER_0_21_405
*809 FILLER_0_21_417
*810 FILLER_0_21_429
*811 FILLER_0_21_441
*812 FILLER_0_21_447
*813 FILLER_0_21_449
*814 FILLER_0_21_461
*815 FILLER_0_21_473
*816 FILLER_0_21_485
*817 FILLER_0_21_497
*818 FILLER_0_21_503
*819 FILLER_0_21_505
*820 FILLER_0_21_51
*821 FILLER_0_21_55
*822 FILLER_0_21_57
*823 FILLER_0_21_69
*824 FILLER_0_21_81
*825 FILLER_0_21_93
*826 FILLER_0_22_109
*827 FILLER_0_22_121
*828 FILLER_0_22_133
*829 FILLER_0_22_139
*830 FILLER_0_22_141
*831 FILLER_0_22_15
*832 FILLER_0_22_153
*833 FILLER_0_22_165
*834 FILLER_0_22_177
*835 FILLER_0_22_189
*836 FILLER_0_22_195
*837 FILLER_0_22_197
*838 FILLER_0_22_209
*839 FILLER_0_22_221
*840 FILLER_0_22_233
*841 FILLER_0_22_245
*842 FILLER_0_22_251
*843 FILLER_0_22_253
*844 FILLER_0_22_265
*845 FILLER_0_22_27
*846 FILLER_0_22_277
*847 FILLER_0_22_289
*848 FILLER_0_22_29
*849 FILLER_0_22_3
*850 FILLER_0_22_301
*851 FILLER_0_22_307
*852 FILLER_0_22_309
*853 FILLER_0_22_321
*854 FILLER_0_22_333
*855 FILLER_0_22_345
*856 FILLER_0_22_357
*857 FILLER_0_22_363
*858 FILLER_0_22_365
*859 FILLER_0_22_377
*860 FILLER_0_22_389
*861 FILLER_0_22_401
*862 FILLER_0_22_41
*863 FILLER_0_22_413
*864 FILLER_0_22_419
*865 FILLER_0_22_421
*866 FILLER_0_22_433
*867 FILLER_0_22_445
*868 FILLER_0_22_457
*869 FILLER_0_22_469
*870 FILLER_0_22_475
*871 FILLER_0_22_477
*872 FILLER_0_22_489
*873 FILLER_0_22_501
*874 FILLER_0_22_513
*875 FILLER_0_22_53
*876 FILLER_0_22_65
*877 FILLER_0_22_77
*878 FILLER_0_22_83
*879 FILLER_0_22_85
*880 FILLER_0_22_97
*881 FILLER_0_23_105
*882 FILLER_0_23_111
*883 FILLER_0_23_113
*884 FILLER_0_23_125
*885 FILLER_0_23_137
*886 FILLER_0_23_149
*887 FILLER_0_23_15
*888 FILLER_0_23_161
*889 FILLER_0_23_167
*890 FILLER_0_23_169
*891 FILLER_0_23_181
*892 FILLER_0_23_193
*893 FILLER_0_23_205
*894 FILLER_0_23_217
*895 FILLER_0_23_223
*896 FILLER_0_23_225
*897 FILLER_0_23_237
*898 FILLER_0_23_249
*899 FILLER_0_23_261
*900 FILLER_0_23_27
*901 FILLER_0_23_273
*902 FILLER_0_23_279
*903 FILLER_0_23_281
*904 FILLER_0_23_293
*905 FILLER_0_23_3
*906 FILLER_0_23_305
*907 FILLER_0_23_317
*908 FILLER_0_23_329
*909 FILLER_0_23_335
*910 FILLER_0_23_337
*911 FILLER_0_23_349
*912 FILLER_0_23_361
*913 FILLER_0_23_373
*914 FILLER_0_23_385
*915 FILLER_0_23_39
*916 FILLER_0_23_391
*917 FILLER_0_23_393
*918 FILLER_0_23_405
*919 FILLER_0_23_417
*920 FILLER_0_23_429
*921 FILLER_0_23_441
*922 FILLER_0_23_447
*923 FILLER_0_23_449
*924 FILLER_0_23_461
*925 FILLER_0_23_473
*926 FILLER_0_23_485
*927 FILLER_0_23_497
*928 FILLER_0_23_503
*929 FILLER_0_23_505
*930 FILLER_0_23_51
*931 FILLER_0_23_55
*932 FILLER_0_23_57
*933 FILLER_0_23_69
*934 FILLER_0_23_81
*935 FILLER_0_23_93
*936 FILLER_0_24_109
*937 FILLER_0_24_121
*938 FILLER_0_24_133
*939 FILLER_0_24_139
*940 FILLER_0_24_141
*941 FILLER_0_24_15
*942 FILLER_0_24_153
*943 FILLER_0_24_165
*944 FILLER_0_24_177
*945 FILLER_0_24_189
*946 FILLER_0_24_195
*947 FILLER_0_24_197
*948 FILLER_0_24_209
*949 FILLER_0_24_221
*950 FILLER_0_24_233
*951 FILLER_0_24_245
*952 FILLER_0_24_251
*953 FILLER_0_24_253
*954 FILLER_0_24_265
*955 FILLER_0_24_27
*956 FILLER_0_24_277
*957 FILLER_0_24_289
*958 FILLER_0_24_29
*959 FILLER_0_24_3
*960 FILLER_0_24_301
*961 FILLER_0_24_307
*962 FILLER_0_24_309
*963 FILLER_0_24_321
*964 FILLER_0_24_333
*965 FILLER_0_24_345
*966 FILLER_0_24_357
*967 FILLER_0_24_363
*968 FILLER_0_24_365
*969 FILLER_0_24_377
*970 FILLER_0_24_389
*971 FILLER_0_24_401
*972 FILLER_0_24_41
*973 FILLER_0_24_413
*974 FILLER_0_24_419
*975 FILLER_0_24_421
*976 FILLER_0_24_433
*977 FILLER_0_24_445
*978 FILLER_0_24_457
*979 FILLER_0_24_469
*980 FILLER_0_24_475
*981 FILLER_0_24_477
*982 FILLER_0_24_489
*983 FILLER_0_24_501
*984 FILLER_0_24_513
*985 FILLER_0_24_53
*986 FILLER_0_24_65
*987 FILLER_0_24_77
*988 FILLER_0_24_83
*989 FILLER_0_24_85
*990 FILLER_0_24_97
*991 FILLER_0_25_105
*992 FILLER_0_25_111
*993 FILLER_0_25_113
*994 FILLER_0_25_125
*995 FILLER_0_25_137
*996 FILLER_0_25_149
*997 FILLER_0_25_15
*998 FILLER_0_25_161
*999 FILLER_0_25_167
*1000 FILLER_0_25_169
*1001 FILLER_0_25_181
*1002 FILLER_0_25_193
*1003 FILLER_0_25_205
*1004 FILLER_0_25_217
*1005 FILLER_0_25_223
*1006 FILLER_0_25_225
*1007 FILLER_0_25_237
*1008 FILLER_0_25_249
*1009 FILLER_0_25_261
*1010 FILLER_0_25_27
*1011 FILLER_0_25_273
*1012 FILLER_0_25_279
*1013 FILLER_0_25_281
*1014 FILLER_0_25_293
*1015 FILLER_0_25_3
*1016 FILLER_0_25_305
*1017 FILLER_0_25_317
*1018 FILLER_0_25_329
*1019 FILLER_0_25_335
*1020 FILLER_0_25_337
*1021 FILLER_0_25_349
*1022 FILLER_0_25_361
*1023 FILLER_0_25_373
*1024 FILLER_0_25_385
*1025 FILLER_0_25_39
*1026 FILLER_0_25_391
*1027 FILLER_0_25_393
*1028 FILLER_0_25_405
*1029 FILLER_0_25_417
*1030 FILLER_0_25_429
*1031 FILLER_0_25_441
*1032 FILLER_0_25_447
*1033 FILLER_0_25_449
*1034 FILLER_0_25_461
*1035 FILLER_0_25_473
*1036 FILLER_0_25_485
*1037 FILLER_0_25_497
*1038 FILLER_0_25_503
*1039 FILLER_0_25_505
*1040 FILLER_0_25_51
*1041 FILLER_0_25_513
*1042 FILLER_0_25_55
*1043 FILLER_0_25_57
*1044 FILLER_0_25_69
*1045 FILLER_0_25_81
*1046 FILLER_0_25_93
*1047 FILLER_0_26_109
*1048 FILLER_0_26_121
*1049 FILLER_0_26_133
*1050 FILLER_0_26_139
*1051 FILLER_0_26_141
*1052 FILLER_0_26_15
*1053 FILLER_0_26_153
*1054 FILLER_0_26_165
*1055 FILLER_0_26_177
*1056 FILLER_0_26_189
*1057 FILLER_0_26_195
*1058 FILLER_0_26_197
*1059 FILLER_0_26_209
*1060 FILLER_0_26_221
*1061 FILLER_0_26_233
*1062 FILLER_0_26_245
*1063 FILLER_0_26_251
*1064 FILLER_0_26_253
*1065 FILLER_0_26_265
*1066 FILLER_0_26_27
*1067 FILLER_0_26_277
*1068 FILLER_0_26_289
*1069 FILLER_0_26_29
*1070 FILLER_0_26_3
*1071 FILLER_0_26_301
*1072 FILLER_0_26_307
*1073 FILLER_0_26_309
*1074 FILLER_0_26_321
*1075 FILLER_0_26_333
*1076 FILLER_0_26_345
*1077 FILLER_0_26_357
*1078 FILLER_0_26_363
*1079 FILLER_0_26_365
*1080 FILLER_0_26_377
*1081 FILLER_0_26_389
*1082 FILLER_0_26_401
*1083 FILLER_0_26_41
*1084 FILLER_0_26_413
*1085 FILLER_0_26_419
*1086 FILLER_0_26_421
*1087 FILLER_0_26_433
*1088 FILLER_0_26_445
*1089 FILLER_0_26_457
*1090 FILLER_0_26_469
*1091 FILLER_0_26_475
*1092 FILLER_0_26_477
*1093 FILLER_0_26_489
*1094 FILLER_0_26_501
*1095 FILLER_0_26_53
*1096 FILLER_0_26_65
*1097 FILLER_0_26_77
*1098 FILLER_0_26_83
*1099 FILLER_0_26_85
*1100 FILLER_0_26_97
*1101 FILLER_0_27_105
*1102 FILLER_0_27_111
*1103 FILLER_0_27_113
*1104 FILLER_0_27_125
*1105 FILLER_0_27_137
*1106 FILLER_0_27_149
*1107 FILLER_0_27_15
*1108 FILLER_0_27_161
*1109 FILLER_0_27_167
*1110 FILLER_0_27_169
*1111 FILLER_0_27_181
*1112 FILLER_0_27_193
*1113 FILLER_0_27_205
*1114 FILLER_0_27_217
*1115 FILLER_0_27_223
*1116 FILLER_0_27_225
*1117 FILLER_0_27_237
*1118 FILLER_0_27_249
*1119 FILLER_0_27_261
*1120 FILLER_0_27_27
*1121 FILLER_0_27_273
*1122 FILLER_0_27_279
*1123 FILLER_0_27_281
*1124 FILLER_0_27_293
*1125 FILLER_0_27_3
*1126 FILLER_0_27_305
*1127 FILLER_0_27_317
*1128 FILLER_0_27_329
*1129 FILLER_0_27_335
*1130 FILLER_0_27_337
*1131 FILLER_0_27_349
*1132 FILLER_0_27_361
*1133 FILLER_0_27_373
*1134 FILLER_0_27_385
*1135 FILLER_0_27_39
*1136 FILLER_0_27_391
*1137 FILLER_0_27_393
*1138 FILLER_0_27_405
*1139 FILLER_0_27_417
*1140 FILLER_0_27_429
*1141 FILLER_0_27_441
*1142 FILLER_0_27_447
*1143 FILLER_0_27_449
*1144 FILLER_0_27_461
*1145 FILLER_0_27_473
*1146 FILLER_0_27_485
*1147 FILLER_0_27_497
*1148 FILLER_0_27_503
*1149 FILLER_0_27_505
*1150 FILLER_0_27_51
*1151 FILLER_0_27_513
*1152 FILLER_0_27_55
*1153 FILLER_0_27_57
*1154 FILLER_0_27_69
*1155 FILLER_0_27_81
*1156 FILLER_0_27_93
*1157 FILLER_0_28_109
*1158 FILLER_0_28_121
*1159 FILLER_0_28_133
*1160 FILLER_0_28_139
*1161 FILLER_0_28_141
*1162 FILLER_0_28_15
*1163 FILLER_0_28_153
*1164 FILLER_0_28_165
*1165 FILLER_0_28_177
*1166 FILLER_0_28_189
*1167 FILLER_0_28_195
*1168 FILLER_0_28_197
*1169 FILLER_0_28_209
*1170 FILLER_0_28_221
*1171 FILLER_0_28_233
*1172 FILLER_0_28_245
*1173 FILLER_0_28_251
*1174 FILLER_0_28_253
*1175 FILLER_0_28_265
*1176 FILLER_0_28_27
*1177 FILLER_0_28_277
*1178 FILLER_0_28_289
*1179 FILLER_0_28_29
*1180 FILLER_0_28_3
*1181 FILLER_0_28_301
*1182 FILLER_0_28_307
*1183 FILLER_0_28_309
*1184 FILLER_0_28_321
*1185 FILLER_0_28_333
*1186 FILLER_0_28_345
*1187 FILLER_0_28_357
*1188 FILLER_0_28_363
*1189 FILLER_0_28_365
*1190 FILLER_0_28_377
*1191 FILLER_0_28_389
*1192 FILLER_0_28_401
*1193 FILLER_0_28_41
*1194 FILLER_0_28_413
*1195 FILLER_0_28_419
*1196 FILLER_0_28_421
*1197 FILLER_0_28_433
*1198 FILLER_0_28_445
*1199 FILLER_0_28_457
*1200 FILLER_0_28_469
*1201 FILLER_0_28_475
*1202 FILLER_0_28_477
*1203 FILLER_0_28_489
*1204 FILLER_0_28_501
*1205 FILLER_0_28_53
*1206 FILLER_0_28_65
*1207 FILLER_0_28_77
*1208 FILLER_0_28_83
*1209 FILLER_0_28_85
*1210 FILLER_0_28_97
*1211 FILLER_0_29_105
*1212 FILLER_0_29_111
*1213 FILLER_0_29_113
*1214 FILLER_0_29_125
*1215 FILLER_0_29_137
*1216 FILLER_0_29_149
*1217 FILLER_0_29_15
*1218 FILLER_0_29_161
*1219 FILLER_0_29_167
*1220 FILLER_0_29_169
*1221 FILLER_0_29_181
*1222 FILLER_0_29_193
*1223 FILLER_0_29_205
*1224 FILLER_0_29_217
*1225 FILLER_0_29_223
*1226 FILLER_0_29_225
*1227 FILLER_0_29_237
*1228 FILLER_0_29_249
*1229 FILLER_0_29_261
*1230 FILLER_0_29_27
*1231 FILLER_0_29_273
*1232 FILLER_0_29_279
*1233 FILLER_0_29_281
*1234 FILLER_0_29_293
*1235 FILLER_0_29_3
*1236 FILLER_0_29_305
*1237 FILLER_0_29_317
*1238 FILLER_0_29_329
*1239 FILLER_0_29_335
*1240 FILLER_0_29_337
*1241 FILLER_0_29_349
*1242 FILLER_0_29_361
*1243 FILLER_0_29_373
*1244 FILLER_0_29_385
*1245 FILLER_0_29_39
*1246 FILLER_0_29_391
*1247 FILLER_0_29_393
*1248 FILLER_0_29_405
*1249 FILLER_0_29_417
*1250 FILLER_0_29_429
*1251 FILLER_0_29_441
*1252 FILLER_0_29_447
*1253 FILLER_0_29_449
*1254 FILLER_0_29_461
*1255 FILLER_0_29_473
*1256 FILLER_0_29_485
*1257 FILLER_0_29_497
*1258 FILLER_0_29_503
*1259 FILLER_0_29_505
*1260 FILLER_0_29_51
*1261 FILLER_0_29_513
*1262 FILLER_0_29_55
*1263 FILLER_0_29_57
*1264 FILLER_0_29_69
*1265 FILLER_0_29_81
*1266 FILLER_0_29_93
*1267 FILLER_0_2_109
*1268 FILLER_0_2_121
*1269 FILLER_0_2_133
*1270 FILLER_0_2_139
*1271 FILLER_0_2_141
*1272 FILLER_0_2_15
*1273 FILLER_0_2_153
*1274 FILLER_0_2_165
*1275 FILLER_0_2_177
*1276 FILLER_0_2_189
*1277 FILLER_0_2_195
*1278 FILLER_0_2_197
*1279 FILLER_0_2_209
*1280 FILLER_0_2_221
*1281 FILLER_0_2_233
*1282 FILLER_0_2_245
*1283 FILLER_0_2_251
*1284 FILLER_0_2_253
*1285 FILLER_0_2_265
*1286 FILLER_0_2_27
*1287 FILLER_0_2_277
*1288 FILLER_0_2_289
*1289 FILLER_0_2_29
*1290 FILLER_0_2_3
*1291 FILLER_0_2_301
*1292 FILLER_0_2_307
*1293 FILLER_0_2_309
*1294 FILLER_0_2_321
*1295 FILLER_0_2_333
*1296 FILLER_0_2_345
*1297 FILLER_0_2_357
*1298 FILLER_0_2_363
*1299 FILLER_0_2_365
*1300 FILLER_0_2_377
*1301 FILLER_0_2_389
*1302 FILLER_0_2_401
*1303 FILLER_0_2_41
*1304 FILLER_0_2_413
*1305 FILLER_0_2_419
*1306 FILLER_0_2_421
*1307 FILLER_0_2_433
*1308 FILLER_0_2_445
*1309 FILLER_0_2_457
*1310 FILLER_0_2_469
*1311 FILLER_0_2_475
*1312 FILLER_0_2_477
*1313 FILLER_0_2_489
*1314 FILLER_0_2_501
*1315 FILLER_0_2_513
*1316 FILLER_0_2_53
*1317 FILLER_0_2_65
*1318 FILLER_0_2_77
*1319 FILLER_0_2_83
*1320 FILLER_0_2_85
*1321 FILLER_0_2_97
*1322 FILLER_0_30_109
*1323 FILLER_0_30_121
*1324 FILLER_0_30_133
*1325 FILLER_0_30_139
*1326 FILLER_0_30_141
*1327 FILLER_0_30_153
*1328 FILLER_0_30_165
*1329 FILLER_0_30_177
*1330 FILLER_0_30_18
*1331 FILLER_0_30_189
*1332 FILLER_0_30_195
*1333 FILLER_0_30_197
*1334 FILLER_0_30_209
*1335 FILLER_0_30_221
*1336 FILLER_0_30_233
*1337 FILLER_0_30_245
*1338 FILLER_0_30_251
*1339 FILLER_0_30_253
*1340 FILLER_0_30_26
*1341 FILLER_0_30_265
*1342 FILLER_0_30_277
*1343 FILLER_0_30_289
*1344 FILLER_0_30_29
*1345 FILLER_0_30_301
*1346 FILLER_0_30_307
*1347 FILLER_0_30_309
*1348 FILLER_0_30_321
*1349 FILLER_0_30_333
*1350 FILLER_0_30_345
*1351 FILLER_0_30_357
*1352 FILLER_0_30_363
*1353 FILLER_0_30_365
*1354 FILLER_0_30_377
*1355 FILLER_0_30_389
*1356 FILLER_0_30_401
*1357 FILLER_0_30_41
*1358 FILLER_0_30_413
*1359 FILLER_0_30_419
*1360 FILLER_0_30_421
*1361 FILLER_0_30_433
*1362 FILLER_0_30_445
*1363 FILLER_0_30_457
*1364 FILLER_0_30_469
*1365 FILLER_0_30_475
*1366 FILLER_0_30_477
*1367 FILLER_0_30_489
*1368 FILLER_0_30_501
*1369 FILLER_0_30_513
*1370 FILLER_0_30_53
*1371 FILLER_0_30_6
*1372 FILLER_0_30_65
*1373 FILLER_0_30_77
*1374 FILLER_0_30_83
*1375 FILLER_0_30_85
*1376 FILLER_0_30_97
*1377 FILLER_0_31_105
*1378 FILLER_0_31_111
*1379 FILLER_0_31_113
*1380 FILLER_0_31_125
*1381 FILLER_0_31_137
*1382 FILLER_0_31_149
*1383 FILLER_0_31_15
*1384 FILLER_0_31_161
*1385 FILLER_0_31_167
*1386 FILLER_0_31_169
*1387 FILLER_0_31_181
*1388 FILLER_0_31_193
*1389 FILLER_0_31_205
*1390 FILLER_0_31_217
*1391 FILLER_0_31_223
*1392 FILLER_0_31_225
*1393 FILLER_0_31_237
*1394 FILLER_0_31_249
*1395 FILLER_0_31_261
*1396 FILLER_0_31_27
*1397 FILLER_0_31_273
*1398 FILLER_0_31_279
*1399 FILLER_0_31_281
*1400 FILLER_0_31_293
*1401 FILLER_0_31_3
*1402 FILLER_0_31_305
*1403 FILLER_0_31_317
*1404 FILLER_0_31_329
*1405 FILLER_0_31_335
*1406 FILLER_0_31_337
*1407 FILLER_0_31_349
*1408 FILLER_0_31_361
*1409 FILLER_0_31_373
*1410 FILLER_0_31_385
*1411 FILLER_0_31_39
*1412 FILLER_0_31_391
*1413 FILLER_0_31_393
*1414 FILLER_0_31_405
*1415 FILLER_0_31_417
*1416 FILLER_0_31_429
*1417 FILLER_0_31_441
*1418 FILLER_0_31_447
*1419 FILLER_0_31_449
*1420 FILLER_0_31_461
*1421 FILLER_0_31_473
*1422 FILLER_0_31_485
*1423 FILLER_0_31_497
*1424 FILLER_0_31_503
*1425 FILLER_0_31_505
*1426 FILLER_0_31_51
*1427 FILLER_0_31_55
*1428 FILLER_0_31_57
*1429 FILLER_0_31_69
*1430 FILLER_0_31_81
*1431 FILLER_0_31_93
*1432 FILLER_0_32_109
*1433 FILLER_0_32_121
*1434 FILLER_0_32_133
*1435 FILLER_0_32_139
*1436 FILLER_0_32_141
*1437 FILLER_0_32_15
*1438 FILLER_0_32_153
*1439 FILLER_0_32_165
*1440 FILLER_0_32_177
*1441 FILLER_0_32_189
*1442 FILLER_0_32_195
*1443 FILLER_0_32_197
*1444 FILLER_0_32_209
*1445 FILLER_0_32_221
*1446 FILLER_0_32_233
*1447 FILLER_0_32_245
*1448 FILLER_0_32_251
*1449 FILLER_0_32_253
*1450 FILLER_0_32_265
*1451 FILLER_0_32_27
*1452 FILLER_0_32_277
*1453 FILLER_0_32_289
*1454 FILLER_0_32_29
*1455 FILLER_0_32_3
*1456 FILLER_0_32_301
*1457 FILLER_0_32_307
*1458 FILLER_0_32_309
*1459 FILLER_0_32_321
*1460 FILLER_0_32_333
*1461 FILLER_0_32_345
*1462 FILLER_0_32_357
*1463 FILLER_0_32_363
*1464 FILLER_0_32_365
*1465 FILLER_0_32_377
*1466 FILLER_0_32_389
*1467 FILLER_0_32_401
*1468 FILLER_0_32_41
*1469 FILLER_0_32_413
*1470 FILLER_0_32_419
*1471 FILLER_0_32_421
*1472 FILLER_0_32_433
*1473 FILLER_0_32_445
*1474 FILLER_0_32_457
*1475 FILLER_0_32_469
*1476 FILLER_0_32_475
*1477 FILLER_0_32_477
*1478 FILLER_0_32_489
*1479 FILLER_0_32_501
*1480 FILLER_0_32_513
*1481 FILLER_0_32_53
*1482 FILLER_0_32_65
*1483 FILLER_0_32_77
*1484 FILLER_0_32_83
*1485 FILLER_0_32_85
*1486 FILLER_0_32_97
*1487 FILLER_0_33_105
*1488 FILLER_0_33_111
*1489 FILLER_0_33_113
*1490 FILLER_0_33_125
*1491 FILLER_0_33_137
*1492 FILLER_0_33_149
*1493 FILLER_0_33_15
*1494 FILLER_0_33_161
*1495 FILLER_0_33_167
*1496 FILLER_0_33_169
*1497 FILLER_0_33_181
*1498 FILLER_0_33_193
*1499 FILLER_0_33_205
*1500 FILLER_0_33_217
*1501 FILLER_0_33_223
*1502 FILLER_0_33_225
*1503 FILLER_0_33_237
*1504 FILLER_0_33_249
*1505 FILLER_0_33_261
*1506 FILLER_0_33_27
*1507 FILLER_0_33_273
*1508 FILLER_0_33_279
*1509 FILLER_0_33_281
*1510 FILLER_0_33_293
*1511 FILLER_0_33_3
*1512 FILLER_0_33_305
*1513 FILLER_0_33_317
*1514 FILLER_0_33_329
*1515 FILLER_0_33_335
*1516 FILLER_0_33_337
*1517 FILLER_0_33_349
*1518 FILLER_0_33_361
*1519 FILLER_0_33_373
*1520 FILLER_0_33_385
*1521 FILLER_0_33_39
*1522 FILLER_0_33_391
*1523 FILLER_0_33_393
*1524 FILLER_0_33_405
*1525 FILLER_0_33_417
*1526 FILLER_0_33_429
*1527 FILLER_0_33_441
*1528 FILLER_0_33_447
*1529 FILLER_0_33_449
*1530 FILLER_0_33_461
*1531 FILLER_0_33_473
*1532 FILLER_0_33_485
*1533 FILLER_0_33_497
*1534 FILLER_0_33_503
*1535 FILLER_0_33_505
*1536 FILLER_0_33_51
*1537 FILLER_0_33_55
*1538 FILLER_0_33_57
*1539 FILLER_0_33_69
*1540 FILLER_0_33_81
*1541 FILLER_0_33_93
*1542 FILLER_0_34_109
*1543 FILLER_0_34_121
*1544 FILLER_0_34_133
*1545 FILLER_0_34_139
*1546 FILLER_0_34_141
*1547 FILLER_0_34_15
*1548 FILLER_0_34_153
*1549 FILLER_0_34_165
*1550 FILLER_0_34_177
*1551 FILLER_0_34_189
*1552 FILLER_0_34_195
*1553 FILLER_0_34_197
*1554 FILLER_0_34_209
*1555 FILLER_0_34_221
*1556 FILLER_0_34_233
*1557 FILLER_0_34_245
*1558 FILLER_0_34_251
*1559 FILLER_0_34_253
*1560 FILLER_0_34_265
*1561 FILLER_0_34_27
*1562 FILLER_0_34_277
*1563 FILLER_0_34_289
*1564 FILLER_0_34_29
*1565 FILLER_0_34_3
*1566 FILLER_0_34_301
*1567 FILLER_0_34_307
*1568 FILLER_0_34_309
*1569 FILLER_0_34_321
*1570 FILLER_0_34_333
*1571 FILLER_0_34_345
*1572 FILLER_0_34_357
*1573 FILLER_0_34_363
*1574 FILLER_0_34_365
*1575 FILLER_0_34_377
*1576 FILLER_0_34_389
*1577 FILLER_0_34_401
*1578 FILLER_0_34_41
*1579 FILLER_0_34_413
*1580 FILLER_0_34_419
*1581 FILLER_0_34_421
*1582 FILLER_0_34_433
*1583 FILLER_0_34_445
*1584 FILLER_0_34_457
*1585 FILLER_0_34_469
*1586 FILLER_0_34_475
*1587 FILLER_0_34_477
*1588 FILLER_0_34_489
*1589 FILLER_0_34_501
*1590 FILLER_0_34_513
*1591 FILLER_0_34_53
*1592 FILLER_0_34_65
*1593 FILLER_0_34_77
*1594 FILLER_0_34_83
*1595 FILLER_0_34_85
*1596 FILLER_0_34_97
*1597 FILLER_0_35_105
*1598 FILLER_0_35_111
*1599 FILLER_0_35_113
*1600 FILLER_0_35_125
*1601 FILLER_0_35_137
*1602 FILLER_0_35_149
*1603 FILLER_0_35_15
*1604 FILLER_0_35_161
*1605 FILLER_0_35_167
*1606 FILLER_0_35_169
*1607 FILLER_0_35_181
*1608 FILLER_0_35_193
*1609 FILLER_0_35_205
*1610 FILLER_0_35_217
*1611 FILLER_0_35_223
*1612 FILLER_0_35_225
*1613 FILLER_0_35_237
*1614 FILLER_0_35_249
*1615 FILLER_0_35_261
*1616 FILLER_0_35_27
*1617 FILLER_0_35_273
*1618 FILLER_0_35_279
*1619 FILLER_0_35_281
*1620 FILLER_0_35_293
*1621 FILLER_0_35_3
*1622 FILLER_0_35_305
*1623 FILLER_0_35_317
*1624 FILLER_0_35_329
*1625 FILLER_0_35_335
*1626 FILLER_0_35_337
*1627 FILLER_0_35_349
*1628 FILLER_0_35_361
*1629 FILLER_0_35_373
*1630 FILLER_0_35_385
*1631 FILLER_0_35_39
*1632 FILLER_0_35_391
*1633 FILLER_0_35_393
*1634 FILLER_0_35_405
*1635 FILLER_0_35_417
*1636 FILLER_0_35_429
*1637 FILLER_0_35_441
*1638 FILLER_0_35_447
*1639 FILLER_0_35_449
*1640 FILLER_0_35_461
*1641 FILLER_0_35_473
*1642 FILLER_0_35_485
*1643 FILLER_0_35_497
*1644 FILLER_0_35_503
*1645 FILLER_0_35_505
*1646 FILLER_0_35_51
*1647 FILLER_0_35_513
*1648 FILLER_0_35_55
*1649 FILLER_0_35_57
*1650 FILLER_0_35_69
*1651 FILLER_0_35_81
*1652 FILLER_0_35_93
*1653 FILLER_0_36_109
*1654 FILLER_0_36_121
*1655 FILLER_0_36_133
*1656 FILLER_0_36_139
*1657 FILLER_0_36_141
*1658 FILLER_0_36_15
*1659 FILLER_0_36_153
*1660 FILLER_0_36_165
*1661 FILLER_0_36_177
*1662 FILLER_0_36_189
*1663 FILLER_0_36_195
*1664 FILLER_0_36_197
*1665 FILLER_0_36_209
*1666 FILLER_0_36_221
*1667 FILLER_0_36_233
*1668 FILLER_0_36_245
*1669 FILLER_0_36_251
*1670 FILLER_0_36_253
*1671 FILLER_0_36_265
*1672 FILLER_0_36_27
*1673 FILLER_0_36_277
*1674 FILLER_0_36_289
*1675 FILLER_0_36_29
*1676 FILLER_0_36_3
*1677 FILLER_0_36_301
*1678 FILLER_0_36_307
*1679 FILLER_0_36_309
*1680 FILLER_0_36_321
*1681 FILLER_0_36_333
*1682 FILLER_0_36_345
*1683 FILLER_0_36_357
*1684 FILLER_0_36_363
*1685 FILLER_0_36_365
*1686 FILLER_0_36_377
*1687 FILLER_0_36_389
*1688 FILLER_0_36_401
*1689 FILLER_0_36_41
*1690 FILLER_0_36_413
*1691 FILLER_0_36_419
*1692 FILLER_0_36_421
*1693 FILLER_0_36_433
*1694 FILLER_0_36_445
*1695 FILLER_0_36_457
*1696 FILLER_0_36_469
*1697 FILLER_0_36_475
*1698 FILLER_0_36_477
*1699 FILLER_0_36_489
*1700 FILLER_0_36_501
*1701 FILLER_0_36_53
*1702 FILLER_0_36_65
*1703 FILLER_0_36_77
*1704 FILLER_0_36_83
*1705 FILLER_0_36_85
*1706 FILLER_0_36_97
*1707 FILLER_0_37_105
*1708 FILLER_0_37_111
*1709 FILLER_0_37_113
*1710 FILLER_0_37_125
*1711 FILLER_0_37_137
*1712 FILLER_0_37_149
*1713 FILLER_0_37_15
*1714 FILLER_0_37_161
*1715 FILLER_0_37_167
*1716 FILLER_0_37_169
*1717 FILLER_0_37_181
*1718 FILLER_0_37_193
*1719 FILLER_0_37_205
*1720 FILLER_0_37_217
*1721 FILLER_0_37_223
*1722 FILLER_0_37_225
*1723 FILLER_0_37_237
*1724 FILLER_0_37_249
*1725 FILLER_0_37_261
*1726 FILLER_0_37_27
*1727 FILLER_0_37_273
*1728 FILLER_0_37_279
*1729 FILLER_0_37_281
*1730 FILLER_0_37_293
*1731 FILLER_0_37_3
*1732 FILLER_0_37_305
*1733 FILLER_0_37_317
*1734 FILLER_0_37_329
*1735 FILLER_0_37_335
*1736 FILLER_0_37_337
*1737 FILLER_0_37_349
*1738 FILLER_0_37_361
*1739 FILLER_0_37_373
*1740 FILLER_0_37_385
*1741 FILLER_0_37_39
*1742 FILLER_0_37_391
*1743 FILLER_0_37_393
*1744 FILLER_0_37_405
*1745 FILLER_0_37_417
*1746 FILLER_0_37_429
*1747 FILLER_0_37_441
*1748 FILLER_0_37_447
*1749 FILLER_0_37_449
*1750 FILLER_0_37_461
*1751 FILLER_0_37_473
*1752 FILLER_0_37_485
*1753 FILLER_0_37_497
*1754 FILLER_0_37_503
*1755 FILLER_0_37_505
*1756 FILLER_0_37_51
*1757 FILLER_0_37_513
*1758 FILLER_0_37_55
*1759 FILLER_0_37_57
*1760 FILLER_0_37_69
*1761 FILLER_0_37_81
*1762 FILLER_0_37_93
*1763 FILLER_0_38_109
*1764 FILLER_0_38_121
*1765 FILLER_0_38_133
*1766 FILLER_0_38_139
*1767 FILLER_0_38_141
*1768 FILLER_0_38_15
*1769 FILLER_0_38_153
*1770 FILLER_0_38_165
*1771 FILLER_0_38_177
*1772 FILLER_0_38_189
*1773 FILLER_0_38_195
*1774 FILLER_0_38_197
*1775 FILLER_0_38_209
*1776 FILLER_0_38_221
*1777 FILLER_0_38_233
*1778 FILLER_0_38_245
*1779 FILLER_0_38_251
*1780 FILLER_0_38_253
*1781 FILLER_0_38_265
*1782 FILLER_0_38_27
*1783 FILLER_0_38_277
*1784 FILLER_0_38_289
*1785 FILLER_0_38_29
*1786 FILLER_0_38_3
*1787 FILLER_0_38_301
*1788 FILLER_0_38_307
*1789 FILLER_0_38_309
*1790 FILLER_0_38_321
*1791 FILLER_0_38_333
*1792 FILLER_0_38_345
*1793 FILLER_0_38_357
*1794 FILLER_0_38_363
*1795 FILLER_0_38_365
*1796 FILLER_0_38_377
*1797 FILLER_0_38_389
*1798 FILLER_0_38_401
*1799 FILLER_0_38_41
*1800 FILLER_0_38_413
*1801 FILLER_0_38_419
*1802 FILLER_0_38_421
*1803 FILLER_0_38_433
*1804 FILLER_0_38_445
*1805 FILLER_0_38_457
*1806 FILLER_0_38_469
*1807 FILLER_0_38_475
*1808 FILLER_0_38_477
*1809 FILLER_0_38_489
*1810 FILLER_0_38_501
*1811 FILLER_0_38_53
*1812 FILLER_0_38_65
*1813 FILLER_0_38_77
*1814 FILLER_0_38_83
*1815 FILLER_0_38_85
*1816 FILLER_0_38_97
*1817 FILLER_0_39_105
*1818 FILLER_0_39_111
*1819 FILLER_0_39_113
*1820 FILLER_0_39_125
*1821 FILLER_0_39_137
*1822 FILLER_0_39_149
*1823 FILLER_0_39_15
*1824 FILLER_0_39_161
*1825 FILLER_0_39_167
*1826 FILLER_0_39_169
*1827 FILLER_0_39_181
*1828 FILLER_0_39_193
*1829 FILLER_0_39_205
*1830 FILLER_0_39_217
*1831 FILLER_0_39_223
*1832 FILLER_0_39_225
*1833 FILLER_0_39_237
*1834 FILLER_0_39_249
*1835 FILLER_0_39_261
*1836 FILLER_0_39_27
*1837 FILLER_0_39_273
*1838 FILLER_0_39_279
*1839 FILLER_0_39_281
*1840 FILLER_0_39_293
*1841 FILLER_0_39_3
*1842 FILLER_0_39_305
*1843 FILLER_0_39_317
*1844 FILLER_0_39_329
*1845 FILLER_0_39_335
*1846 FILLER_0_39_337
*1847 FILLER_0_39_349
*1848 FILLER_0_39_361
*1849 FILLER_0_39_373
*1850 FILLER_0_39_385
*1851 FILLER_0_39_39
*1852 FILLER_0_39_391
*1853 FILLER_0_39_393
*1854 FILLER_0_39_405
*1855 FILLER_0_39_417
*1856 FILLER_0_39_429
*1857 FILLER_0_39_441
*1858 FILLER_0_39_447
*1859 FILLER_0_39_449
*1860 FILLER_0_39_461
*1861 FILLER_0_39_473
*1862 FILLER_0_39_485
*1863 FILLER_0_39_497
*1864 FILLER_0_39_503
*1865 FILLER_0_39_505
*1866 FILLER_0_39_51
*1867 FILLER_0_39_513
*1868 FILLER_0_39_55
*1869 FILLER_0_39_57
*1870 FILLER_0_39_69
*1871 FILLER_0_39_81
*1872 FILLER_0_39_93
*1873 FILLER_0_3_105
*1874 FILLER_0_3_111
*1875 FILLER_0_3_113
*1876 FILLER_0_3_125
*1877 FILLER_0_3_137
*1878 FILLER_0_3_149
*1879 FILLER_0_3_15
*1880 FILLER_0_3_161
*1881 FILLER_0_3_167
*1882 FILLER_0_3_169
*1883 FILLER_0_3_181
*1884 FILLER_0_3_193
*1885 FILLER_0_3_205
*1886 FILLER_0_3_217
*1887 FILLER_0_3_223
*1888 FILLER_0_3_225
*1889 FILLER_0_3_237
*1890 FILLER_0_3_249
*1891 FILLER_0_3_261
*1892 FILLER_0_3_27
*1893 FILLER_0_3_273
*1894 FILLER_0_3_279
*1895 FILLER_0_3_281
*1896 FILLER_0_3_293
*1897 FILLER_0_3_3
*1898 FILLER_0_3_305
*1899 FILLER_0_3_317
*1900 FILLER_0_3_329
*1901 FILLER_0_3_335
*1902 FILLER_0_3_337
*1903 FILLER_0_3_349
*1904 FILLER_0_3_361
*1905 FILLER_0_3_373
*1906 FILLER_0_3_385
*1907 FILLER_0_3_39
*1908 FILLER_0_3_391
*1909 FILLER_0_3_393
*1910 FILLER_0_3_405
*1911 FILLER_0_3_417
*1912 FILLER_0_3_429
*1913 FILLER_0_3_441
*1914 FILLER_0_3_447
*1915 FILLER_0_3_449
*1916 FILLER_0_3_461
*1917 FILLER_0_3_473
*1918 FILLER_0_3_485
*1919 FILLER_0_3_497
*1920 FILLER_0_3_503
*1921 FILLER_0_3_505
*1922 FILLER_0_3_51
*1923 FILLER_0_3_55
*1924 FILLER_0_3_57
*1925 FILLER_0_3_69
*1926 FILLER_0_3_81
*1927 FILLER_0_3_93
*1928 FILLER_0_40_109
*1929 FILLER_0_40_121
*1930 FILLER_0_40_133
*1931 FILLER_0_40_139
*1932 FILLER_0_40_141
*1933 FILLER_0_40_15
*1934 FILLER_0_40_153
*1935 FILLER_0_40_165
*1936 FILLER_0_40_177
*1937 FILLER_0_40_189
*1938 FILLER_0_40_195
*1939 FILLER_0_40_197
*1940 FILLER_0_40_209
*1941 FILLER_0_40_221
*1942 FILLER_0_40_233
*1943 FILLER_0_40_245
*1944 FILLER_0_40_251
*1945 FILLER_0_40_253
*1946 FILLER_0_40_265
*1947 FILLER_0_40_27
*1948 FILLER_0_40_277
*1949 FILLER_0_40_289
*1950 FILLER_0_40_29
*1951 FILLER_0_40_3
*1952 FILLER_0_40_301
*1953 FILLER_0_40_307
*1954 FILLER_0_40_309
*1955 FILLER_0_40_321
*1956 FILLER_0_40_333
*1957 FILLER_0_40_345
*1958 FILLER_0_40_357
*1959 FILLER_0_40_363
*1960 FILLER_0_40_365
*1961 FILLER_0_40_377
*1962 FILLER_0_40_389
*1963 FILLER_0_40_401
*1964 FILLER_0_40_41
*1965 FILLER_0_40_413
*1966 FILLER_0_40_419
*1967 FILLER_0_40_421
*1968 FILLER_0_40_433
*1969 FILLER_0_40_445
*1970 FILLER_0_40_457
*1971 FILLER_0_40_469
*1972 FILLER_0_40_475
*1973 FILLER_0_40_477
*1974 FILLER_0_40_489
*1975 FILLER_0_40_501
*1976 FILLER_0_40_513
*1977 FILLER_0_40_53
*1978 FILLER_0_40_65
*1979 FILLER_0_40_77
*1980 FILLER_0_40_83
*1981 FILLER_0_40_85
*1982 FILLER_0_40_97
*1983 FILLER_0_41_105
*1984 FILLER_0_41_111
*1985 FILLER_0_41_113
*1986 FILLER_0_41_125
*1987 FILLER_0_41_137
*1988 FILLER_0_41_149
*1989 FILLER_0_41_15
*1990 FILLER_0_41_161
*1991 FILLER_0_41_167
*1992 FILLER_0_41_169
*1993 FILLER_0_41_181
*1994 FILLER_0_41_193
*1995 FILLER_0_41_205
*1996 FILLER_0_41_217
*1997 FILLER_0_41_223
*1998 FILLER_0_41_225
*1999 FILLER_0_41_237
*2000 FILLER_0_41_249
*2001 FILLER_0_41_261
*2002 FILLER_0_41_27
*2003 FILLER_0_41_273
*2004 FILLER_0_41_279
*2005 FILLER_0_41_281
*2006 FILLER_0_41_293
*2007 FILLER_0_41_3
*2008 FILLER_0_41_305
*2009 FILLER_0_41_317
*2010 FILLER_0_41_329
*2011 FILLER_0_41_335
*2012 FILLER_0_41_337
*2013 FILLER_0_41_349
*2014 FILLER_0_41_361
*2015 FILLER_0_41_373
*2016 FILLER_0_41_385
*2017 FILLER_0_41_39
*2018 FILLER_0_41_391
*2019 FILLER_0_41_393
*2020 FILLER_0_41_405
*2021 FILLER_0_41_417
*2022 FILLER_0_41_429
*2023 FILLER_0_41_441
*2024 FILLER_0_41_447
*2025 FILLER_0_41_449
*2026 FILLER_0_41_461
*2027 FILLER_0_41_473
*2028 FILLER_0_41_485
*2029 FILLER_0_41_497
*2030 FILLER_0_41_503
*2031 FILLER_0_41_505
*2032 FILLER_0_41_51
*2033 FILLER_0_41_55
*2034 FILLER_0_41_57
*2035 FILLER_0_41_69
*2036 FILLER_0_41_81
*2037 FILLER_0_41_93
*2038 FILLER_0_42_109
*2039 FILLER_0_42_121
*2040 FILLER_0_42_133
*2041 FILLER_0_42_139
*2042 FILLER_0_42_141
*2043 FILLER_0_42_15
*2044 FILLER_0_42_153
*2045 FILLER_0_42_165
*2046 FILLER_0_42_177
*2047 FILLER_0_42_189
*2048 FILLER_0_42_195
*2049 FILLER_0_42_197
*2050 FILLER_0_42_209
*2051 FILLER_0_42_221
*2052 FILLER_0_42_233
*2053 FILLER_0_42_245
*2054 FILLER_0_42_251
*2055 FILLER_0_42_253
*2056 FILLER_0_42_265
*2057 FILLER_0_42_27
*2058 FILLER_0_42_277
*2059 FILLER_0_42_289
*2060 FILLER_0_42_29
*2061 FILLER_0_42_3
*2062 FILLER_0_42_301
*2063 FILLER_0_42_307
*2064 FILLER_0_42_309
*2065 FILLER_0_42_321
*2066 FILLER_0_42_333
*2067 FILLER_0_42_345
*2068 FILLER_0_42_357
*2069 FILLER_0_42_363
*2070 FILLER_0_42_365
*2071 FILLER_0_42_377
*2072 FILLER_0_42_389
*2073 FILLER_0_42_401
*2074 FILLER_0_42_41
*2075 FILLER_0_42_413
*2076 FILLER_0_42_419
*2077 FILLER_0_42_421
*2078 FILLER_0_42_433
*2079 FILLER_0_42_445
*2080 FILLER_0_42_457
*2081 FILLER_0_42_469
*2082 FILLER_0_42_475
*2083 FILLER_0_42_477
*2084 FILLER_0_42_489
*2085 FILLER_0_42_501
*2086 FILLER_0_42_513
*2087 FILLER_0_42_53
*2088 FILLER_0_42_65
*2089 FILLER_0_42_77
*2090 FILLER_0_42_83
*2091 FILLER_0_42_85
*2092 FILLER_0_42_97
*2093 FILLER_0_43_105
*2094 FILLER_0_43_111
*2095 FILLER_0_43_113
*2096 FILLER_0_43_125
*2097 FILLER_0_43_137
*2098 FILLER_0_43_149
*2099 FILLER_0_43_15
*2100 FILLER_0_43_161
*2101 FILLER_0_43_167
*2102 FILLER_0_43_169
*2103 FILLER_0_43_181
*2104 FILLER_0_43_193
*2105 FILLER_0_43_205
*2106 FILLER_0_43_217
*2107 FILLER_0_43_223
*2108 FILLER_0_43_225
*2109 FILLER_0_43_237
*2110 FILLER_0_43_249
*2111 FILLER_0_43_261
*2112 FILLER_0_43_27
*2113 FILLER_0_43_273
*2114 FILLER_0_43_279
*2115 FILLER_0_43_281
*2116 FILLER_0_43_293
*2117 FILLER_0_43_3
*2118 FILLER_0_43_305
*2119 FILLER_0_43_317
*2120 FILLER_0_43_329
*2121 FILLER_0_43_335
*2122 FILLER_0_43_337
*2123 FILLER_0_43_349
*2124 FILLER_0_43_361
*2125 FILLER_0_43_373
*2126 FILLER_0_43_385
*2127 FILLER_0_43_39
*2128 FILLER_0_43_391
*2129 FILLER_0_43_393
*2130 FILLER_0_43_405
*2131 FILLER_0_43_417
*2132 FILLER_0_43_429
*2133 FILLER_0_43_441
*2134 FILLER_0_43_447
*2135 FILLER_0_43_449
*2136 FILLER_0_43_461
*2137 FILLER_0_43_473
*2138 FILLER_0_43_485
*2139 FILLER_0_43_497
*2140 FILLER_0_43_503
*2141 FILLER_0_43_505
*2142 FILLER_0_43_51
*2143 FILLER_0_43_55
*2144 FILLER_0_43_57
*2145 FILLER_0_43_69
*2146 FILLER_0_43_81
*2147 FILLER_0_43_93
*2148 FILLER_0_44_109
*2149 FILLER_0_44_121
*2150 FILLER_0_44_133
*2151 FILLER_0_44_139
*2152 FILLER_0_44_141
*2153 FILLER_0_44_15
*2154 FILLER_0_44_153
*2155 FILLER_0_44_165
*2156 FILLER_0_44_177
*2157 FILLER_0_44_189
*2158 FILLER_0_44_195
*2159 FILLER_0_44_197
*2160 FILLER_0_44_209
*2161 FILLER_0_44_221
*2162 FILLER_0_44_233
*2163 FILLER_0_44_245
*2164 FILLER_0_44_251
*2165 FILLER_0_44_253
*2166 FILLER_0_44_265
*2167 FILLER_0_44_27
*2168 FILLER_0_44_277
*2169 FILLER_0_44_289
*2170 FILLER_0_44_29
*2171 FILLER_0_44_3
*2172 FILLER_0_44_301
*2173 FILLER_0_44_307
*2174 FILLER_0_44_309
*2175 FILLER_0_44_321
*2176 FILLER_0_44_333
*2177 FILLER_0_44_345
*2178 FILLER_0_44_357
*2179 FILLER_0_44_363
*2180 FILLER_0_44_365
*2181 FILLER_0_44_377
*2182 FILLER_0_44_389
*2183 FILLER_0_44_401
*2184 FILLER_0_44_41
*2185 FILLER_0_44_413
*2186 FILLER_0_44_419
*2187 FILLER_0_44_421
*2188 FILLER_0_44_433
*2189 FILLER_0_44_445
*2190 FILLER_0_44_457
*2191 FILLER_0_44_469
*2192 FILLER_0_44_475
*2193 FILLER_0_44_477
*2194 FILLER_0_44_489
*2195 FILLER_0_44_501
*2196 FILLER_0_44_513
*2197 FILLER_0_44_53
*2198 FILLER_0_44_65
*2199 FILLER_0_44_77
*2200 FILLER_0_44_83
*2201 FILLER_0_44_85
*2202 FILLER_0_44_97
*2203 FILLER_0_45_105
*2204 FILLER_0_45_111
*2205 FILLER_0_45_113
*2206 FILLER_0_45_125
*2207 FILLER_0_45_137
*2208 FILLER_0_45_149
*2209 FILLER_0_45_15
*2210 FILLER_0_45_161
*2211 FILLER_0_45_167
*2212 FILLER_0_45_169
*2213 FILLER_0_45_181
*2214 FILLER_0_45_193
*2215 FILLER_0_45_205
*2216 FILLER_0_45_217
*2217 FILLER_0_45_223
*2218 FILLER_0_45_225
*2219 FILLER_0_45_237
*2220 FILLER_0_45_249
*2221 FILLER_0_45_261
*2222 FILLER_0_45_27
*2223 FILLER_0_45_273
*2224 FILLER_0_45_279
*2225 FILLER_0_45_281
*2226 FILLER_0_45_293
*2227 FILLER_0_45_3
*2228 FILLER_0_45_305
*2229 FILLER_0_45_317
*2230 FILLER_0_45_329
*2231 FILLER_0_45_335
*2232 FILLER_0_45_337
*2233 FILLER_0_45_349
*2234 FILLER_0_45_361
*2235 FILLER_0_45_373
*2236 FILLER_0_45_385
*2237 FILLER_0_45_39
*2238 FILLER_0_45_391
*2239 FILLER_0_45_393
*2240 FILLER_0_45_405
*2241 FILLER_0_45_417
*2242 FILLER_0_45_429
*2243 FILLER_0_45_441
*2244 FILLER_0_45_447
*2245 FILLER_0_45_449
*2246 FILLER_0_45_461
*2247 FILLER_0_45_473
*2248 FILLER_0_45_485
*2249 FILLER_0_45_497
*2250 FILLER_0_45_503
*2251 FILLER_0_45_505
*2252 FILLER_0_45_51
*2253 FILLER_0_45_513
*2254 FILLER_0_45_55
*2255 FILLER_0_45_57
*2256 FILLER_0_45_69
*2257 FILLER_0_45_81
*2258 FILLER_0_45_93
*2259 FILLER_0_46_109
*2260 FILLER_0_46_121
*2261 FILLER_0_46_133
*2262 FILLER_0_46_139
*2263 FILLER_0_46_141
*2264 FILLER_0_46_15
*2265 FILLER_0_46_153
*2266 FILLER_0_46_165
*2267 FILLER_0_46_177
*2268 FILLER_0_46_189
*2269 FILLER_0_46_195
*2270 FILLER_0_46_197
*2271 FILLER_0_46_209
*2272 FILLER_0_46_221
*2273 FILLER_0_46_233
*2274 FILLER_0_46_245
*2275 FILLER_0_46_251
*2276 FILLER_0_46_253
*2277 FILLER_0_46_265
*2278 FILLER_0_46_27
*2279 FILLER_0_46_277
*2280 FILLER_0_46_289
*2281 FILLER_0_46_29
*2282 FILLER_0_46_3
*2283 FILLER_0_46_301
*2284 FILLER_0_46_307
*2285 FILLER_0_46_309
*2286 FILLER_0_46_321
*2287 FILLER_0_46_333
*2288 FILLER_0_46_345
*2289 FILLER_0_46_357
*2290 FILLER_0_46_363
*2291 FILLER_0_46_365
*2292 FILLER_0_46_377
*2293 FILLER_0_46_389
*2294 FILLER_0_46_401
*2295 FILLER_0_46_41
*2296 FILLER_0_46_413
*2297 FILLER_0_46_419
*2298 FILLER_0_46_421
*2299 FILLER_0_46_433
*2300 FILLER_0_46_445
*2301 FILLER_0_46_457
*2302 FILLER_0_46_469
*2303 FILLER_0_46_475
*2304 FILLER_0_46_477
*2305 FILLER_0_46_489
*2306 FILLER_0_46_501
*2307 FILLER_0_46_53
*2308 FILLER_0_46_65
*2309 FILLER_0_46_77
*2310 FILLER_0_46_83
*2311 FILLER_0_46_85
*2312 FILLER_0_46_97
*2313 FILLER_0_47_105
*2314 FILLER_0_47_111
*2315 FILLER_0_47_113
*2316 FILLER_0_47_125
*2317 FILLER_0_47_137
*2318 FILLER_0_47_149
*2319 FILLER_0_47_15
*2320 FILLER_0_47_161
*2321 FILLER_0_47_167
*2322 FILLER_0_47_169
*2323 FILLER_0_47_181
*2324 FILLER_0_47_193
*2325 FILLER_0_47_205
*2326 FILLER_0_47_217
*2327 FILLER_0_47_223
*2328 FILLER_0_47_225
*2329 FILLER_0_47_237
*2330 FILLER_0_47_249
*2331 FILLER_0_47_261
*2332 FILLER_0_47_27
*2333 FILLER_0_47_273
*2334 FILLER_0_47_279
*2335 FILLER_0_47_281
*2336 FILLER_0_47_293
*2337 FILLER_0_47_3
*2338 FILLER_0_47_305
*2339 FILLER_0_47_317
*2340 FILLER_0_47_329
*2341 FILLER_0_47_335
*2342 FILLER_0_47_337
*2343 FILLER_0_47_349
*2344 FILLER_0_47_361
*2345 FILLER_0_47_373
*2346 FILLER_0_47_385
*2347 FILLER_0_47_39
*2348 FILLER_0_47_391
*2349 FILLER_0_47_393
*2350 FILLER_0_47_405
*2351 FILLER_0_47_417
*2352 FILLER_0_47_429
*2353 FILLER_0_47_441
*2354 FILLER_0_47_447
*2355 FILLER_0_47_449
*2356 FILLER_0_47_461
*2357 FILLER_0_47_473
*2358 FILLER_0_47_485
*2359 FILLER_0_47_497
*2360 FILLER_0_47_503
*2361 FILLER_0_47_505
*2362 FILLER_0_47_51
*2363 FILLER_0_47_513
*2364 FILLER_0_47_55
*2365 FILLER_0_47_57
*2366 FILLER_0_47_69
*2367 FILLER_0_47_81
*2368 FILLER_0_47_93
*2369 FILLER_0_48_109
*2370 FILLER_0_48_121
*2371 FILLER_0_48_133
*2372 FILLER_0_48_139
*2373 FILLER_0_48_141
*2374 FILLER_0_48_15
*2375 FILLER_0_48_153
*2376 FILLER_0_48_165
*2377 FILLER_0_48_177
*2378 FILLER_0_48_189
*2379 FILLER_0_48_195
*2380 FILLER_0_48_197
*2381 FILLER_0_48_209
*2382 FILLER_0_48_221
*2383 FILLER_0_48_233
*2384 FILLER_0_48_245
*2385 FILLER_0_48_251
*2386 FILLER_0_48_253
*2387 FILLER_0_48_265
*2388 FILLER_0_48_27
*2389 FILLER_0_48_277
*2390 FILLER_0_48_289
*2391 FILLER_0_48_29
*2392 FILLER_0_48_3
*2393 FILLER_0_48_301
*2394 FILLER_0_48_307
*2395 FILLER_0_48_309
*2396 FILLER_0_48_321
*2397 FILLER_0_48_333
*2398 FILLER_0_48_345
*2399 FILLER_0_48_357
*2400 FILLER_0_48_363
*2401 FILLER_0_48_365
*2402 FILLER_0_48_377
*2403 FILLER_0_48_389
*2404 FILLER_0_48_401
*2405 FILLER_0_48_41
*2406 FILLER_0_48_413
*2407 FILLER_0_48_419
*2408 FILLER_0_48_421
*2409 FILLER_0_48_433
*2410 FILLER_0_48_445
*2411 FILLER_0_48_457
*2412 FILLER_0_48_469
*2413 FILLER_0_48_475
*2414 FILLER_0_48_477
*2415 FILLER_0_48_489
*2416 FILLER_0_48_501
*2417 FILLER_0_48_53
*2418 FILLER_0_48_65
*2419 FILLER_0_48_77
*2420 FILLER_0_48_83
*2421 FILLER_0_48_85
*2422 FILLER_0_48_97
*2423 FILLER_0_49_105
*2424 FILLER_0_49_111
*2425 FILLER_0_49_113
*2426 FILLER_0_49_125
*2427 FILLER_0_49_137
*2428 FILLER_0_49_149
*2429 FILLER_0_49_15
*2430 FILLER_0_49_161
*2431 FILLER_0_49_167
*2432 FILLER_0_49_169
*2433 FILLER_0_49_181
*2434 FILLER_0_49_193
*2435 FILLER_0_49_205
*2436 FILLER_0_49_217
*2437 FILLER_0_49_223
*2438 FILLER_0_49_225
*2439 FILLER_0_49_237
*2440 FILLER_0_49_249
*2441 FILLER_0_49_261
*2442 FILLER_0_49_27
*2443 FILLER_0_49_273
*2444 FILLER_0_49_279
*2445 FILLER_0_49_281
*2446 FILLER_0_49_293
*2447 FILLER_0_49_3
*2448 FILLER_0_49_305
*2449 FILLER_0_49_317
*2450 FILLER_0_49_329
*2451 FILLER_0_49_335
*2452 FILLER_0_49_337
*2453 FILLER_0_49_349
*2454 FILLER_0_49_361
*2455 FILLER_0_49_373
*2456 FILLER_0_49_385
*2457 FILLER_0_49_39
*2458 FILLER_0_49_391
*2459 FILLER_0_49_393
*2460 FILLER_0_49_405
*2461 FILLER_0_49_417
*2462 FILLER_0_49_429
*2463 FILLER_0_49_441
*2464 FILLER_0_49_447
*2465 FILLER_0_49_449
*2466 FILLER_0_49_461
*2467 FILLER_0_49_473
*2468 FILLER_0_49_485
*2469 FILLER_0_49_497
*2470 FILLER_0_49_503
*2471 FILLER_0_49_505
*2472 FILLER_0_49_51
*2473 FILLER_0_49_513
*2474 FILLER_0_49_55
*2475 FILLER_0_49_57
*2476 FILLER_0_49_69
*2477 FILLER_0_49_81
*2478 FILLER_0_49_93
*2479 FILLER_0_4_109
*2480 FILLER_0_4_121
*2481 FILLER_0_4_133
*2482 FILLER_0_4_139
*2483 FILLER_0_4_141
*2484 FILLER_0_4_15
*2485 FILLER_0_4_153
*2486 FILLER_0_4_165
*2487 FILLER_0_4_177
*2488 FILLER_0_4_189
*2489 FILLER_0_4_195
*2490 FILLER_0_4_197
*2491 FILLER_0_4_209
*2492 FILLER_0_4_221
*2493 FILLER_0_4_233
*2494 FILLER_0_4_245
*2495 FILLER_0_4_251
*2496 FILLER_0_4_253
*2497 FILLER_0_4_265
*2498 FILLER_0_4_27
*2499 FILLER_0_4_277
*2500 FILLER_0_4_289
*2501 FILLER_0_4_29
*2502 FILLER_0_4_3
*2503 FILLER_0_4_301
*2504 FILLER_0_4_307
*2505 FILLER_0_4_309
*2506 FILLER_0_4_321
*2507 FILLER_0_4_333
*2508 FILLER_0_4_345
*2509 FILLER_0_4_357
*2510 FILLER_0_4_363
*2511 FILLER_0_4_365
*2512 FILLER_0_4_377
*2513 FILLER_0_4_389
*2514 FILLER_0_4_401
*2515 FILLER_0_4_41
*2516 FILLER_0_4_413
*2517 FILLER_0_4_419
*2518 FILLER_0_4_421
*2519 FILLER_0_4_433
*2520 FILLER_0_4_445
*2521 FILLER_0_4_457
*2522 FILLER_0_4_469
*2523 FILLER_0_4_475
*2524 FILLER_0_4_477
*2525 FILLER_0_4_489
*2526 FILLER_0_4_501
*2527 FILLER_0_4_513
*2528 FILLER_0_4_53
*2529 FILLER_0_4_65
*2530 FILLER_0_4_77
*2531 FILLER_0_4_83
*2532 FILLER_0_4_85
*2533 FILLER_0_4_97
*2534 FILLER_0_50_109
*2535 FILLER_0_50_121
*2536 FILLER_0_50_133
*2537 FILLER_0_50_139
*2538 FILLER_0_50_141
*2539 FILLER_0_50_15
*2540 FILLER_0_50_153
*2541 FILLER_0_50_165
*2542 FILLER_0_50_177
*2543 FILLER_0_50_189
*2544 FILLER_0_50_195
*2545 FILLER_0_50_197
*2546 FILLER_0_50_209
*2547 FILLER_0_50_221
*2548 FILLER_0_50_233
*2549 FILLER_0_50_245
*2550 FILLER_0_50_251
*2551 FILLER_0_50_253
*2552 FILLER_0_50_265
*2553 FILLER_0_50_27
*2554 FILLER_0_50_277
*2555 FILLER_0_50_289
*2556 FILLER_0_50_29
*2557 FILLER_0_50_3
*2558 FILLER_0_50_301
*2559 FILLER_0_50_307
*2560 FILLER_0_50_309
*2561 FILLER_0_50_321
*2562 FILLER_0_50_333
*2563 FILLER_0_50_345
*2564 FILLER_0_50_357
*2565 FILLER_0_50_363
*2566 FILLER_0_50_365
*2567 FILLER_0_50_377
*2568 FILLER_0_50_389
*2569 FILLER_0_50_401
*2570 FILLER_0_50_41
*2571 FILLER_0_50_413
*2572 FILLER_0_50_419
*2573 FILLER_0_50_421
*2574 FILLER_0_50_433
*2575 FILLER_0_50_445
*2576 FILLER_0_50_457
*2577 FILLER_0_50_469
*2578 FILLER_0_50_475
*2579 FILLER_0_50_477
*2580 FILLER_0_50_489
*2581 FILLER_0_50_501
*2582 FILLER_0_50_513
*2583 FILLER_0_50_53
*2584 FILLER_0_50_65
*2585 FILLER_0_50_77
*2586 FILLER_0_50_83
*2587 FILLER_0_50_85
*2588 FILLER_0_50_97
*2589 FILLER_0_51_105
*2590 FILLER_0_51_111
*2591 FILLER_0_51_113
*2592 FILLER_0_51_125
*2593 FILLER_0_51_137
*2594 FILLER_0_51_149
*2595 FILLER_0_51_15
*2596 FILLER_0_51_161
*2597 FILLER_0_51_167
*2598 FILLER_0_51_169
*2599 FILLER_0_51_181
*2600 FILLER_0_51_193
*2601 FILLER_0_51_205
*2602 FILLER_0_51_217
*2603 FILLER_0_51_223
*2604 FILLER_0_51_225
*2605 FILLER_0_51_237
*2606 FILLER_0_51_249
*2607 FILLER_0_51_261
*2608 FILLER_0_51_27
*2609 FILLER_0_51_273
*2610 FILLER_0_51_279
*2611 FILLER_0_51_281
*2612 FILLER_0_51_293
*2613 FILLER_0_51_3
*2614 FILLER_0_51_305
*2615 FILLER_0_51_317
*2616 FILLER_0_51_329
*2617 FILLER_0_51_335
*2618 FILLER_0_51_337
*2619 FILLER_0_51_349
*2620 FILLER_0_51_361
*2621 FILLER_0_51_373
*2622 FILLER_0_51_385
*2623 FILLER_0_51_39
*2624 FILLER_0_51_391
*2625 FILLER_0_51_393
*2626 FILLER_0_51_405
*2627 FILLER_0_51_417
*2628 FILLER_0_51_429
*2629 FILLER_0_51_441
*2630 FILLER_0_51_447
*2631 FILLER_0_51_449
*2632 FILLER_0_51_461
*2633 FILLER_0_51_473
*2634 FILLER_0_51_485
*2635 FILLER_0_51_497
*2636 FILLER_0_51_503
*2637 FILLER_0_51_505
*2638 FILLER_0_51_51
*2639 FILLER_0_51_55
*2640 FILLER_0_51_57
*2641 FILLER_0_51_69
*2642 FILLER_0_51_81
*2643 FILLER_0_51_93
*2644 FILLER_0_52_109
*2645 FILLER_0_52_121
*2646 FILLER_0_52_133
*2647 FILLER_0_52_139
*2648 FILLER_0_52_141
*2649 FILLER_0_52_15
*2650 FILLER_0_52_153
*2651 FILLER_0_52_165
*2652 FILLER_0_52_177
*2653 FILLER_0_52_189
*2654 FILLER_0_52_195
*2655 FILLER_0_52_197
*2656 FILLER_0_52_209
*2657 FILLER_0_52_221
*2658 FILLER_0_52_233
*2659 FILLER_0_52_245
*2660 FILLER_0_52_251
*2661 FILLER_0_52_253
*2662 FILLER_0_52_265
*2663 FILLER_0_52_27
*2664 FILLER_0_52_277
*2665 FILLER_0_52_289
*2666 FILLER_0_52_29
*2667 FILLER_0_52_3
*2668 FILLER_0_52_301
*2669 FILLER_0_52_307
*2670 FILLER_0_52_309
*2671 FILLER_0_52_321
*2672 FILLER_0_52_333
*2673 FILLER_0_52_345
*2674 FILLER_0_52_357
*2675 FILLER_0_52_363
*2676 FILLER_0_52_365
*2677 FILLER_0_52_377
*2678 FILLER_0_52_389
*2679 FILLER_0_52_401
*2680 FILLER_0_52_41
*2681 FILLER_0_52_413
*2682 FILLER_0_52_419
*2683 FILLER_0_52_421
*2684 FILLER_0_52_433
*2685 FILLER_0_52_445
*2686 FILLER_0_52_457
*2687 FILLER_0_52_469
*2688 FILLER_0_52_475
*2689 FILLER_0_52_477
*2690 FILLER_0_52_489
*2691 FILLER_0_52_501
*2692 FILLER_0_52_513
*2693 FILLER_0_52_53
*2694 FILLER_0_52_65
*2695 FILLER_0_52_77
*2696 FILLER_0_52_83
*2697 FILLER_0_52_85
*2698 FILLER_0_52_97
*2699 FILLER_0_53_105
*2700 FILLER_0_53_111
*2701 FILLER_0_53_113
*2702 FILLER_0_53_125
*2703 FILLER_0_53_137
*2704 FILLER_0_53_149
*2705 FILLER_0_53_161
*2706 FILLER_0_53_167
*2707 FILLER_0_53_169
*2708 FILLER_0_53_18
*2709 FILLER_0_53_181
*2710 FILLER_0_53_193
*2711 FILLER_0_53_205
*2712 FILLER_0_53_217
*2713 FILLER_0_53_223
*2714 FILLER_0_53_225
*2715 FILLER_0_53_237
*2716 FILLER_0_53_249
*2717 FILLER_0_53_261
*2718 FILLER_0_53_273
*2719 FILLER_0_53_279
*2720 FILLER_0_53_281
*2721 FILLER_0_53_293
*2722 FILLER_0_53_30
*2723 FILLER_0_53_305
*2724 FILLER_0_53_317
*2725 FILLER_0_53_329
*2726 FILLER_0_53_335
*2727 FILLER_0_53_337
*2728 FILLER_0_53_349
*2729 FILLER_0_53_361
*2730 FILLER_0_53_373
*2731 FILLER_0_53_385
*2732 FILLER_0_53_391
*2733 FILLER_0_53_393
*2734 FILLER_0_53_405
*2735 FILLER_0_53_417
*2736 FILLER_0_53_42
*2737 FILLER_0_53_429
*2738 FILLER_0_53_441
*2739 FILLER_0_53_447
*2740 FILLER_0_53_449
*2741 FILLER_0_53_461
*2742 FILLER_0_53_473
*2743 FILLER_0_53_485
*2744 FILLER_0_53_497
*2745 FILLER_0_53_503
*2746 FILLER_0_53_505
*2747 FILLER_0_53_54
*2748 FILLER_0_53_57
*2749 FILLER_0_53_6
*2750 FILLER_0_53_69
*2751 FILLER_0_53_81
*2752 FILLER_0_53_93
*2753 FILLER_0_54_109
*2754 FILLER_0_54_121
*2755 FILLER_0_54_133
*2756 FILLER_0_54_139
*2757 FILLER_0_54_141
*2758 FILLER_0_54_15
*2759 FILLER_0_54_153
*2760 FILLER_0_54_165
*2761 FILLER_0_54_177
*2762 FILLER_0_54_189
*2763 FILLER_0_54_195
*2764 FILLER_0_54_197
*2765 FILLER_0_54_209
*2766 FILLER_0_54_221
*2767 FILLER_0_54_233
*2768 FILLER_0_54_245
*2769 FILLER_0_54_251
*2770 FILLER_0_54_253
*2771 FILLER_0_54_265
*2772 FILLER_0_54_27
*2773 FILLER_0_54_277
*2774 FILLER_0_54_289
*2775 FILLER_0_54_29
*2776 FILLER_0_54_3
*2777 FILLER_0_54_301
*2778 FILLER_0_54_307
*2779 FILLER_0_54_309
*2780 FILLER_0_54_321
*2781 FILLER_0_54_333
*2782 FILLER_0_54_345
*2783 FILLER_0_54_357
*2784 FILLER_0_54_363
*2785 FILLER_0_54_365
*2786 FILLER_0_54_377
*2787 FILLER_0_54_389
*2788 FILLER_0_54_401
*2789 FILLER_0_54_41
*2790 FILLER_0_54_413
*2791 FILLER_0_54_419
*2792 FILLER_0_54_421
*2793 FILLER_0_54_433
*2794 FILLER_0_54_445
*2795 FILLER_0_54_457
*2796 FILLER_0_54_469
*2797 FILLER_0_54_475
*2798 FILLER_0_54_477
*2799 FILLER_0_54_489
*2800 FILLER_0_54_501
*2801 FILLER_0_54_513
*2802 FILLER_0_54_53
*2803 FILLER_0_54_65
*2804 FILLER_0_54_77
*2805 FILLER_0_54_83
*2806 FILLER_0_54_85
*2807 FILLER_0_54_97
*2808 FILLER_0_55_105
*2809 FILLER_0_55_111
*2810 FILLER_0_55_113
*2811 FILLER_0_55_125
*2812 FILLER_0_55_137
*2813 FILLER_0_55_149
*2814 FILLER_0_55_15
*2815 FILLER_0_55_161
*2816 FILLER_0_55_167
*2817 FILLER_0_55_169
*2818 FILLER_0_55_181
*2819 FILLER_0_55_193
*2820 FILLER_0_55_205
*2821 FILLER_0_55_217
*2822 FILLER_0_55_223
*2823 FILLER_0_55_225
*2824 FILLER_0_55_237
*2825 FILLER_0_55_249
*2826 FILLER_0_55_261
*2827 FILLER_0_55_27
*2828 FILLER_0_55_273
*2829 FILLER_0_55_279
*2830 FILLER_0_55_281
*2831 FILLER_0_55_293
*2832 FILLER_0_55_3
*2833 FILLER_0_55_305
*2834 FILLER_0_55_317
*2835 FILLER_0_55_329
*2836 FILLER_0_55_335
*2837 FILLER_0_55_337
*2838 FILLER_0_55_349
*2839 FILLER_0_55_361
*2840 FILLER_0_55_373
*2841 FILLER_0_55_385
*2842 FILLER_0_55_39
*2843 FILLER_0_55_391
*2844 FILLER_0_55_393
*2845 FILLER_0_55_405
*2846 FILLER_0_55_417
*2847 FILLER_0_55_429
*2848 FILLER_0_55_441
*2849 FILLER_0_55_447
*2850 FILLER_0_55_449
*2851 FILLER_0_55_461
*2852 FILLER_0_55_473
*2853 FILLER_0_55_485
*2854 FILLER_0_55_497
*2855 FILLER_0_55_503
*2856 FILLER_0_55_505
*2857 FILLER_0_55_51
*2858 FILLER_0_55_513
*2859 FILLER_0_55_55
*2860 FILLER_0_55_57
*2861 FILLER_0_55_69
*2862 FILLER_0_55_81
*2863 FILLER_0_55_93
*2864 FILLER_0_56_109
*2865 FILLER_0_56_121
*2866 FILLER_0_56_133
*2867 FILLER_0_56_139
*2868 FILLER_0_56_141
*2869 FILLER_0_56_15
*2870 FILLER_0_56_153
*2871 FILLER_0_56_165
*2872 FILLER_0_56_177
*2873 FILLER_0_56_189
*2874 FILLER_0_56_195
*2875 FILLER_0_56_197
*2876 FILLER_0_56_209
*2877 FILLER_0_56_221
*2878 FILLER_0_56_233
*2879 FILLER_0_56_245
*2880 FILLER_0_56_251
*2881 FILLER_0_56_253
*2882 FILLER_0_56_265
*2883 FILLER_0_56_27
*2884 FILLER_0_56_277
*2885 FILLER_0_56_289
*2886 FILLER_0_56_29
*2887 FILLER_0_56_3
*2888 FILLER_0_56_301
*2889 FILLER_0_56_307
*2890 FILLER_0_56_309
*2891 FILLER_0_56_321
*2892 FILLER_0_56_333
*2893 FILLER_0_56_345
*2894 FILLER_0_56_357
*2895 FILLER_0_56_363
*2896 FILLER_0_56_365
*2897 FILLER_0_56_377
*2898 FILLER_0_56_389
*2899 FILLER_0_56_401
*2900 FILLER_0_56_41
*2901 FILLER_0_56_413
*2902 FILLER_0_56_419
*2903 FILLER_0_56_421
*2904 FILLER_0_56_433
*2905 FILLER_0_56_445
*2906 FILLER_0_56_457
*2907 FILLER_0_56_469
*2908 FILLER_0_56_475
*2909 FILLER_0_56_477
*2910 FILLER_0_56_489
*2911 FILLER_0_56_501
*2912 FILLER_0_56_53
*2913 FILLER_0_56_65
*2914 FILLER_0_56_77
*2915 FILLER_0_56_83
*2916 FILLER_0_56_85
*2917 FILLER_0_56_97
*2918 FILLER_0_57_105
*2919 FILLER_0_57_111
*2920 FILLER_0_57_113
*2921 FILLER_0_57_125
*2922 FILLER_0_57_137
*2923 FILLER_0_57_149
*2924 FILLER_0_57_15
*2925 FILLER_0_57_161
*2926 FILLER_0_57_167
*2927 FILLER_0_57_169
*2928 FILLER_0_57_181
*2929 FILLER_0_57_193
*2930 FILLER_0_57_205
*2931 FILLER_0_57_217
*2932 FILLER_0_57_223
*2933 FILLER_0_57_225
*2934 FILLER_0_57_237
*2935 FILLER_0_57_249
*2936 FILLER_0_57_261
*2937 FILLER_0_57_27
*2938 FILLER_0_57_273
*2939 FILLER_0_57_279
*2940 FILLER_0_57_281
*2941 FILLER_0_57_293
*2942 FILLER_0_57_3
*2943 FILLER_0_57_305
*2944 FILLER_0_57_317
*2945 FILLER_0_57_329
*2946 FILLER_0_57_335
*2947 FILLER_0_57_337
*2948 FILLER_0_57_349
*2949 FILLER_0_57_361
*2950 FILLER_0_57_373
*2951 FILLER_0_57_385
*2952 FILLER_0_57_39
*2953 FILLER_0_57_391
*2954 FILLER_0_57_393
*2955 FILLER_0_57_405
*2956 FILLER_0_57_417
*2957 FILLER_0_57_429
*2958 FILLER_0_57_441
*2959 FILLER_0_57_447
*2960 FILLER_0_57_449
*2961 FILLER_0_57_461
*2962 FILLER_0_57_473
*2963 FILLER_0_57_485
*2964 FILLER_0_57_497
*2965 FILLER_0_57_503
*2966 FILLER_0_57_505
*2967 FILLER_0_57_51
*2968 FILLER_0_57_513
*2969 FILLER_0_57_55
*2970 FILLER_0_57_57
*2971 FILLER_0_57_69
*2972 FILLER_0_57_81
*2973 FILLER_0_57_93
*2974 FILLER_0_58_109
*2975 FILLER_0_58_121
*2976 FILLER_0_58_133
*2977 FILLER_0_58_139
*2978 FILLER_0_58_141
*2979 FILLER_0_58_15
*2980 FILLER_0_58_153
*2981 FILLER_0_58_165
*2982 FILLER_0_58_177
*2983 FILLER_0_58_189
*2984 FILLER_0_58_195
*2985 FILLER_0_58_197
*2986 FILLER_0_58_209
*2987 FILLER_0_58_221
*2988 FILLER_0_58_233
*2989 FILLER_0_58_245
*2990 FILLER_0_58_251
*2991 FILLER_0_58_253
*2992 FILLER_0_58_265
*2993 FILLER_0_58_27
*2994 FILLER_0_58_277
*2995 FILLER_0_58_289
*2996 FILLER_0_58_29
*2997 FILLER_0_58_3
*2998 FILLER_0_58_301
*2999 FILLER_0_58_307
*3000 FILLER_0_58_309
*3001 FILLER_0_58_321
*3002 FILLER_0_58_333
*3003 FILLER_0_58_345
*3004 FILLER_0_58_357
*3005 FILLER_0_58_363
*3006 FILLER_0_58_365
*3007 FILLER_0_58_377
*3008 FILLER_0_58_389
*3009 FILLER_0_58_401
*3010 FILLER_0_58_41
*3011 FILLER_0_58_413
*3012 FILLER_0_58_419
*3013 FILLER_0_58_421
*3014 FILLER_0_58_433
*3015 FILLER_0_58_445
*3016 FILLER_0_58_457
*3017 FILLER_0_58_469
*3018 FILLER_0_58_475
*3019 FILLER_0_58_477
*3020 FILLER_0_58_489
*3021 FILLER_0_58_501
*3022 FILLER_0_58_53
*3023 FILLER_0_58_65
*3024 FILLER_0_58_77
*3025 FILLER_0_58_83
*3026 FILLER_0_58_85
*3027 FILLER_0_58_97
*3028 FILLER_0_59_105
*3029 FILLER_0_59_111
*3030 FILLER_0_59_113
*3031 FILLER_0_59_125
*3032 FILLER_0_59_137
*3033 FILLER_0_59_149
*3034 FILLER_0_59_15
*3035 FILLER_0_59_161
*3036 FILLER_0_59_167
*3037 FILLER_0_59_169
*3038 FILLER_0_59_181
*3039 FILLER_0_59_193
*3040 FILLER_0_59_205
*3041 FILLER_0_59_217
*3042 FILLER_0_59_223
*3043 FILLER_0_59_225
*3044 FILLER_0_59_237
*3045 FILLER_0_59_249
*3046 FILLER_0_59_261
*3047 FILLER_0_59_27
*3048 FILLER_0_59_273
*3049 FILLER_0_59_279
*3050 FILLER_0_59_281
*3051 FILLER_0_59_293
*3052 FILLER_0_59_3
*3053 FILLER_0_59_305
*3054 FILLER_0_59_317
*3055 FILLER_0_59_329
*3056 FILLER_0_59_335
*3057 FILLER_0_59_337
*3058 FILLER_0_59_349
*3059 FILLER_0_59_361
*3060 FILLER_0_59_373
*3061 FILLER_0_59_385
*3062 FILLER_0_59_39
*3063 FILLER_0_59_391
*3064 FILLER_0_59_393
*3065 FILLER_0_59_405
*3066 FILLER_0_59_417
*3067 FILLER_0_59_429
*3068 FILLER_0_59_441
*3069 FILLER_0_59_447
*3070 FILLER_0_59_449
*3071 FILLER_0_59_461
*3072 FILLER_0_59_473
*3073 FILLER_0_59_485
*3074 FILLER_0_59_497
*3075 FILLER_0_59_503
*3076 FILLER_0_59_505
*3077 FILLER_0_59_51
*3078 FILLER_0_59_513
*3079 FILLER_0_59_55
*3080 FILLER_0_59_57
*3081 FILLER_0_59_69
*3082 FILLER_0_59_81
*3083 FILLER_0_59_93
*3084 FILLER_0_5_105
*3085 FILLER_0_5_111
*3086 FILLER_0_5_113
*3087 FILLER_0_5_125
*3088 FILLER_0_5_137
*3089 FILLER_0_5_149
*3090 FILLER_0_5_15
*3091 FILLER_0_5_161
*3092 FILLER_0_5_167
*3093 FILLER_0_5_169
*3094 FILLER_0_5_181
*3095 FILLER_0_5_193
*3096 FILLER_0_5_205
*3097 FILLER_0_5_217
*3098 FILLER_0_5_223
*3099 FILLER_0_5_225
*3100 FILLER_0_5_237
*3101 FILLER_0_5_249
*3102 FILLER_0_5_261
*3103 FILLER_0_5_27
*3104 FILLER_0_5_273
*3105 FILLER_0_5_279
*3106 FILLER_0_5_281
*3107 FILLER_0_5_293
*3108 FILLER_0_5_3
*3109 FILLER_0_5_305
*3110 FILLER_0_5_317
*3111 FILLER_0_5_329
*3112 FILLER_0_5_335
*3113 FILLER_0_5_337
*3114 FILLER_0_5_349
*3115 FILLER_0_5_361
*3116 FILLER_0_5_373
*3117 FILLER_0_5_385
*3118 FILLER_0_5_39
*3119 FILLER_0_5_391
*3120 FILLER_0_5_393
*3121 FILLER_0_5_405
*3122 FILLER_0_5_417
*3123 FILLER_0_5_429
*3124 FILLER_0_5_441
*3125 FILLER_0_5_447
*3126 FILLER_0_5_449
*3127 FILLER_0_5_461
*3128 FILLER_0_5_473
*3129 FILLER_0_5_485
*3130 FILLER_0_5_497
*3131 FILLER_0_5_503
*3132 FILLER_0_5_505
*3133 FILLER_0_5_51
*3134 FILLER_0_5_513
*3135 FILLER_0_5_55
*3136 FILLER_0_5_57
*3137 FILLER_0_5_69
*3138 FILLER_0_5_81
*3139 FILLER_0_5_93
*3140 FILLER_0_60_109
*3141 FILLER_0_60_121
*3142 FILLER_0_60_133
*3143 FILLER_0_60_139
*3144 FILLER_0_60_141
*3145 FILLER_0_60_15
*3146 FILLER_0_60_153
*3147 FILLER_0_60_165
*3148 FILLER_0_60_177
*3149 FILLER_0_60_189
*3150 FILLER_0_60_195
*3151 FILLER_0_60_197
*3152 FILLER_0_60_209
*3153 FILLER_0_60_221
*3154 FILLER_0_60_233
*3155 FILLER_0_60_245
*3156 FILLER_0_60_251
*3157 FILLER_0_60_253
*3158 FILLER_0_60_265
*3159 FILLER_0_60_27
*3160 FILLER_0_60_277
*3161 FILLER_0_60_289
*3162 FILLER_0_60_29
*3163 FILLER_0_60_3
*3164 FILLER_0_60_301
*3165 FILLER_0_60_307
*3166 FILLER_0_60_309
*3167 FILLER_0_60_321
*3168 FILLER_0_60_333
*3169 FILLER_0_60_345
*3170 FILLER_0_60_357
*3171 FILLER_0_60_363
*3172 FILLER_0_60_365
*3173 FILLER_0_60_377
*3174 FILLER_0_60_389
*3175 FILLER_0_60_401
*3176 FILLER_0_60_41
*3177 FILLER_0_60_413
*3178 FILLER_0_60_419
*3179 FILLER_0_60_421
*3180 FILLER_0_60_433
*3181 FILLER_0_60_445
*3182 FILLER_0_60_457
*3183 FILLER_0_60_469
*3184 FILLER_0_60_475
*3185 FILLER_0_60_477
*3186 FILLER_0_60_489
*3187 FILLER_0_60_501
*3188 FILLER_0_60_513
*3189 FILLER_0_60_53
*3190 FILLER_0_60_65
*3191 FILLER_0_60_77
*3192 FILLER_0_60_83
*3193 FILLER_0_60_85
*3194 FILLER_0_60_97
*3195 FILLER_0_61_105
*3196 FILLER_0_61_111
*3197 FILLER_0_61_113
*3198 FILLER_0_61_125
*3199 FILLER_0_61_137
*3200 FILLER_0_61_149
*3201 FILLER_0_61_15
*3202 FILLER_0_61_161
*3203 FILLER_0_61_167
*3204 FILLER_0_61_169
*3205 FILLER_0_61_181
*3206 FILLER_0_61_193
*3207 FILLER_0_61_205
*3208 FILLER_0_61_217
*3209 FILLER_0_61_223
*3210 FILLER_0_61_225
*3211 FILLER_0_61_237
*3212 FILLER_0_61_249
*3213 FILLER_0_61_261
*3214 FILLER_0_61_27
*3215 FILLER_0_61_273
*3216 FILLER_0_61_279
*3217 FILLER_0_61_281
*3218 FILLER_0_61_293
*3219 FILLER_0_61_3
*3220 FILLER_0_61_305
*3221 FILLER_0_61_317
*3222 FILLER_0_61_329
*3223 FILLER_0_61_335
*3224 FILLER_0_61_337
*3225 FILLER_0_61_349
*3226 FILLER_0_61_361
*3227 FILLER_0_61_373
*3228 FILLER_0_61_385
*3229 FILLER_0_61_39
*3230 FILLER_0_61_391
*3231 FILLER_0_61_393
*3232 FILLER_0_61_405
*3233 FILLER_0_61_417
*3234 FILLER_0_61_429
*3235 FILLER_0_61_441
*3236 FILLER_0_61_447
*3237 FILLER_0_61_449
*3238 FILLER_0_61_461
*3239 FILLER_0_61_473
*3240 FILLER_0_61_485
*3241 FILLER_0_61_497
*3242 FILLER_0_61_503
*3243 FILLER_0_61_505
*3244 FILLER_0_61_51
*3245 FILLER_0_61_55
*3246 FILLER_0_61_57
*3247 FILLER_0_61_69
*3248 FILLER_0_61_81
*3249 FILLER_0_61_93
*3250 FILLER_0_62_109
*3251 FILLER_0_62_121
*3252 FILLER_0_62_133
*3253 FILLER_0_62_139
*3254 FILLER_0_62_141
*3255 FILLER_0_62_15
*3256 FILLER_0_62_153
*3257 FILLER_0_62_165
*3258 FILLER_0_62_177
*3259 FILLER_0_62_189
*3260 FILLER_0_62_195
*3261 FILLER_0_62_197
*3262 FILLER_0_62_209
*3263 FILLER_0_62_221
*3264 FILLER_0_62_233
*3265 FILLER_0_62_245
*3266 FILLER_0_62_251
*3267 FILLER_0_62_253
*3268 FILLER_0_62_265
*3269 FILLER_0_62_27
*3270 FILLER_0_62_277
*3271 FILLER_0_62_289
*3272 FILLER_0_62_29
*3273 FILLER_0_62_3
*3274 FILLER_0_62_301
*3275 FILLER_0_62_307
*3276 FILLER_0_62_309
*3277 FILLER_0_62_321
*3278 FILLER_0_62_333
*3279 FILLER_0_62_345
*3280 FILLER_0_62_357
*3281 FILLER_0_62_363
*3282 FILLER_0_62_365
*3283 FILLER_0_62_377
*3284 FILLER_0_62_389
*3285 FILLER_0_62_401
*3286 FILLER_0_62_41
*3287 FILLER_0_62_413
*3288 FILLER_0_62_419
*3289 FILLER_0_62_421
*3290 FILLER_0_62_433
*3291 FILLER_0_62_445
*3292 FILLER_0_62_457
*3293 FILLER_0_62_469
*3294 FILLER_0_62_475
*3295 FILLER_0_62_477
*3296 FILLER_0_62_489
*3297 FILLER_0_62_501
*3298 FILLER_0_62_513
*3299 FILLER_0_62_53
*3300 FILLER_0_62_65
*3301 FILLER_0_62_77
*3302 FILLER_0_62_83
*3303 FILLER_0_62_85
*3304 FILLER_0_62_97
*3305 FILLER_0_63_105
*3306 FILLER_0_63_111
*3307 FILLER_0_63_113
*3308 FILLER_0_63_125
*3309 FILLER_0_63_137
*3310 FILLER_0_63_149
*3311 FILLER_0_63_15
*3312 FILLER_0_63_161
*3313 FILLER_0_63_167
*3314 FILLER_0_63_169
*3315 FILLER_0_63_181
*3316 FILLER_0_63_193
*3317 FILLER_0_63_205
*3318 FILLER_0_63_217
*3319 FILLER_0_63_223
*3320 FILLER_0_63_225
*3321 FILLER_0_63_237
*3322 FILLER_0_63_249
*3323 FILLER_0_63_261
*3324 FILLER_0_63_27
*3325 FILLER_0_63_273
*3326 FILLER_0_63_279
*3327 FILLER_0_63_281
*3328 FILLER_0_63_293
*3329 FILLER_0_63_3
*3330 FILLER_0_63_305
*3331 FILLER_0_63_317
*3332 FILLER_0_63_329
*3333 FILLER_0_63_335
*3334 FILLER_0_63_337
*3335 FILLER_0_63_349
*3336 FILLER_0_63_361
*3337 FILLER_0_63_373
*3338 FILLER_0_63_385
*3339 FILLER_0_63_39
*3340 FILLER_0_63_391
*3341 FILLER_0_63_393
*3342 FILLER_0_63_405
*3343 FILLER_0_63_417
*3344 FILLER_0_63_429
*3345 FILLER_0_63_441
*3346 FILLER_0_63_447
*3347 FILLER_0_63_449
*3348 FILLER_0_63_461
*3349 FILLER_0_63_473
*3350 FILLER_0_63_485
*3351 FILLER_0_63_497
*3352 FILLER_0_63_503
*3353 FILLER_0_63_505
*3354 FILLER_0_63_51
*3355 FILLER_0_63_55
*3356 FILLER_0_63_57
*3357 FILLER_0_63_69
*3358 FILLER_0_63_81
*3359 FILLER_0_63_93
*3360 FILLER_0_64_109
*3361 FILLER_0_64_121
*3362 FILLER_0_64_133
*3363 FILLER_0_64_139
*3364 FILLER_0_64_141
*3365 FILLER_0_64_15
*3366 FILLER_0_64_153
*3367 FILLER_0_64_165
*3368 FILLER_0_64_177
*3369 FILLER_0_64_189
*3370 FILLER_0_64_195
*3371 FILLER_0_64_197
*3372 FILLER_0_64_209
*3373 FILLER_0_64_221
*3374 FILLER_0_64_233
*3375 FILLER_0_64_245
*3376 FILLER_0_64_251
*3377 FILLER_0_64_253
*3378 FILLER_0_64_265
*3379 FILLER_0_64_27
*3380 FILLER_0_64_277
*3381 FILLER_0_64_289
*3382 FILLER_0_64_29
*3383 FILLER_0_64_3
*3384 FILLER_0_64_301
*3385 FILLER_0_64_307
*3386 FILLER_0_64_309
*3387 FILLER_0_64_321
*3388 FILLER_0_64_333
*3389 FILLER_0_64_345
*3390 FILLER_0_64_357
*3391 FILLER_0_64_363
*3392 FILLER_0_64_365
*3393 FILLER_0_64_377
*3394 FILLER_0_64_389
*3395 FILLER_0_64_401
*3396 FILLER_0_64_41
*3397 FILLER_0_64_413
*3398 FILLER_0_64_419
*3399 FILLER_0_64_421
*3400 FILLER_0_64_433
*3401 FILLER_0_64_445
*3402 FILLER_0_64_457
*3403 FILLER_0_64_469
*3404 FILLER_0_64_475
*3405 FILLER_0_64_477
*3406 FILLER_0_64_489
*3407 FILLER_0_64_501
*3408 FILLER_0_64_513
*3409 FILLER_0_64_53
*3410 FILLER_0_64_65
*3411 FILLER_0_64_77
*3412 FILLER_0_64_83
*3413 FILLER_0_64_85
*3414 FILLER_0_64_97
*3415 FILLER_0_65_105
*3416 FILLER_0_65_111
*3417 FILLER_0_65_113
*3418 FILLER_0_65_125
*3419 FILLER_0_65_137
*3420 FILLER_0_65_149
*3421 FILLER_0_65_15
*3422 FILLER_0_65_161
*3423 FILLER_0_65_167
*3424 FILLER_0_65_169
*3425 FILLER_0_65_181
*3426 FILLER_0_65_193
*3427 FILLER_0_65_205
*3428 FILLER_0_65_217
*3429 FILLER_0_65_223
*3430 FILLER_0_65_225
*3431 FILLER_0_65_237
*3432 FILLER_0_65_249
*3433 FILLER_0_65_261
*3434 FILLER_0_65_27
*3435 FILLER_0_65_273
*3436 FILLER_0_65_279
*3437 FILLER_0_65_281
*3438 FILLER_0_65_293
*3439 FILLER_0_65_3
*3440 FILLER_0_65_305
*3441 FILLER_0_65_317
*3442 FILLER_0_65_329
*3443 FILLER_0_65_335
*3444 FILLER_0_65_337
*3445 FILLER_0_65_349
*3446 FILLER_0_65_361
*3447 FILLER_0_65_373
*3448 FILLER_0_65_385
*3449 FILLER_0_65_39
*3450 FILLER_0_65_391
*3451 FILLER_0_65_393
*3452 FILLER_0_65_405
*3453 FILLER_0_65_417
*3454 FILLER_0_65_429
*3455 FILLER_0_65_441
*3456 FILLER_0_65_447
*3457 FILLER_0_65_449
*3458 FILLER_0_65_461
*3459 FILLER_0_65_473
*3460 FILLER_0_65_485
*3461 FILLER_0_65_497
*3462 FILLER_0_65_503
*3463 FILLER_0_65_505
*3464 FILLER_0_65_51
*3465 FILLER_0_65_513
*3466 FILLER_0_65_55
*3467 FILLER_0_65_57
*3468 FILLER_0_65_69
*3469 FILLER_0_65_81
*3470 FILLER_0_65_93
*3471 FILLER_0_66_109
*3472 FILLER_0_66_121
*3473 FILLER_0_66_133
*3474 FILLER_0_66_139
*3475 FILLER_0_66_141
*3476 FILLER_0_66_15
*3477 FILLER_0_66_153
*3478 FILLER_0_66_165
*3479 FILLER_0_66_177
*3480 FILLER_0_66_189
*3481 FILLER_0_66_195
*3482 FILLER_0_66_197
*3483 FILLER_0_66_209
*3484 FILLER_0_66_221
*3485 FILLER_0_66_233
*3486 FILLER_0_66_245
*3487 FILLER_0_66_251
*3488 FILLER_0_66_253
*3489 FILLER_0_66_265
*3490 FILLER_0_66_27
*3491 FILLER_0_66_277
*3492 FILLER_0_66_289
*3493 FILLER_0_66_29
*3494 FILLER_0_66_3
*3495 FILLER_0_66_301
*3496 FILLER_0_66_307
*3497 FILLER_0_66_309
*3498 FILLER_0_66_321
*3499 FILLER_0_66_333
*3500 FILLER_0_66_345
*3501 FILLER_0_66_357
*3502 FILLER_0_66_363
*3503 FILLER_0_66_365
*3504 FILLER_0_66_377
*3505 FILLER_0_66_389
*3506 FILLER_0_66_401
*3507 FILLER_0_66_41
*3508 FILLER_0_66_413
*3509 FILLER_0_66_419
*3510 FILLER_0_66_421
*3511 FILLER_0_66_433
*3512 FILLER_0_66_445
*3513 FILLER_0_66_457
*3514 FILLER_0_66_469
*3515 FILLER_0_66_475
*3516 FILLER_0_66_477
*3517 FILLER_0_66_489
*3518 FILLER_0_66_501
*3519 FILLER_0_66_53
*3520 FILLER_0_66_65
*3521 FILLER_0_66_77
*3522 FILLER_0_66_83
*3523 FILLER_0_66_85
*3524 FILLER_0_66_97
*3525 FILLER_0_67_105
*3526 FILLER_0_67_111
*3527 FILLER_0_67_113
*3528 FILLER_0_67_125
*3529 FILLER_0_67_137
*3530 FILLER_0_67_149
*3531 FILLER_0_67_15
*3532 FILLER_0_67_161
*3533 FILLER_0_67_167
*3534 FILLER_0_67_169
*3535 FILLER_0_67_181
*3536 FILLER_0_67_193
*3537 FILLER_0_67_205
*3538 FILLER_0_67_217
*3539 FILLER_0_67_223
*3540 FILLER_0_67_225
*3541 FILLER_0_67_237
*3542 FILLER_0_67_249
*3543 FILLER_0_67_261
*3544 FILLER_0_67_27
*3545 FILLER_0_67_273
*3546 FILLER_0_67_279
*3547 FILLER_0_67_281
*3548 FILLER_0_67_293
*3549 FILLER_0_67_3
*3550 FILLER_0_67_305
*3551 FILLER_0_67_317
*3552 FILLER_0_67_329
*3553 FILLER_0_67_335
*3554 FILLER_0_67_337
*3555 FILLER_0_67_349
*3556 FILLER_0_67_361
*3557 FILLER_0_67_373
*3558 FILLER_0_67_385
*3559 FILLER_0_67_39
*3560 FILLER_0_67_391
*3561 FILLER_0_67_393
*3562 FILLER_0_67_405
*3563 FILLER_0_67_417
*3564 FILLER_0_67_429
*3565 FILLER_0_67_441
*3566 FILLER_0_67_447
*3567 FILLER_0_67_449
*3568 FILLER_0_67_461
*3569 FILLER_0_67_473
*3570 FILLER_0_67_485
*3571 FILLER_0_67_497
*3572 FILLER_0_67_503
*3573 FILLER_0_67_505
*3574 FILLER_0_67_51
*3575 FILLER_0_67_513
*3576 FILLER_0_67_55
*3577 FILLER_0_67_57
*3578 FILLER_0_67_69
*3579 FILLER_0_67_81
*3580 FILLER_0_67_93
*3581 FILLER_0_68_109
*3582 FILLER_0_68_121
*3583 FILLER_0_68_133
*3584 FILLER_0_68_139
*3585 FILLER_0_68_141
*3586 FILLER_0_68_15
*3587 FILLER_0_68_153
*3588 FILLER_0_68_165
*3589 FILLER_0_68_177
*3590 FILLER_0_68_189
*3591 FILLER_0_68_195
*3592 FILLER_0_68_197
*3593 FILLER_0_68_209
*3594 FILLER_0_68_221
*3595 FILLER_0_68_233
*3596 FILLER_0_68_245
*3597 FILLER_0_68_251
*3598 FILLER_0_68_253
*3599 FILLER_0_68_265
*3600 FILLER_0_68_27
*3601 FILLER_0_68_277
*3602 FILLER_0_68_289
*3603 FILLER_0_68_29
*3604 FILLER_0_68_3
*3605 FILLER_0_68_301
*3606 FILLER_0_68_307
*3607 FILLER_0_68_309
*3608 FILLER_0_68_321
*3609 FILLER_0_68_333
*3610 FILLER_0_68_345
*3611 FILLER_0_68_357
*3612 FILLER_0_68_363
*3613 FILLER_0_68_365
*3614 FILLER_0_68_377
*3615 FILLER_0_68_389
*3616 FILLER_0_68_401
*3617 FILLER_0_68_41
*3618 FILLER_0_68_413
*3619 FILLER_0_68_419
*3620 FILLER_0_68_421
*3621 FILLER_0_68_433
*3622 FILLER_0_68_445
*3623 FILLER_0_68_457
*3624 FILLER_0_68_469
*3625 FILLER_0_68_475
*3626 FILLER_0_68_477
*3627 FILLER_0_68_489
*3628 FILLER_0_68_501
*3629 FILLER_0_68_53
*3630 FILLER_0_68_65
*3631 FILLER_0_68_77
*3632 FILLER_0_68_83
*3633 FILLER_0_68_85
*3634 FILLER_0_68_97
*3635 FILLER_0_69_105
*3636 FILLER_0_69_111
*3637 FILLER_0_69_113
*3638 FILLER_0_69_125
*3639 FILLER_0_69_137
*3640 FILLER_0_69_149
*3641 FILLER_0_69_15
*3642 FILLER_0_69_161
*3643 FILLER_0_69_167
*3644 FILLER_0_69_169
*3645 FILLER_0_69_181
*3646 FILLER_0_69_193
*3647 FILLER_0_69_205
*3648 FILLER_0_69_217
*3649 FILLER_0_69_223
*3650 FILLER_0_69_225
*3651 FILLER_0_69_237
*3652 FILLER_0_69_249
*3653 FILLER_0_69_261
*3654 FILLER_0_69_27
*3655 FILLER_0_69_273
*3656 FILLER_0_69_279
*3657 FILLER_0_69_281
*3658 FILLER_0_69_293
*3659 FILLER_0_69_3
*3660 FILLER_0_69_305
*3661 FILLER_0_69_317
*3662 FILLER_0_69_329
*3663 FILLER_0_69_335
*3664 FILLER_0_69_337
*3665 FILLER_0_69_349
*3666 FILLER_0_69_361
*3667 FILLER_0_69_373
*3668 FILLER_0_69_385
*3669 FILLER_0_69_39
*3670 FILLER_0_69_391
*3671 FILLER_0_69_393
*3672 FILLER_0_69_405
*3673 FILLER_0_69_417
*3674 FILLER_0_69_429
*3675 FILLER_0_69_441
*3676 FILLER_0_69_447
*3677 FILLER_0_69_449
*3678 FILLER_0_69_461
*3679 FILLER_0_69_473
*3680 FILLER_0_69_485
*3681 FILLER_0_69_497
*3682 FILLER_0_69_503
*3683 FILLER_0_69_505
*3684 FILLER_0_69_51
*3685 FILLER_0_69_513
*3686 FILLER_0_69_55
*3687 FILLER_0_69_57
*3688 FILLER_0_69_69
*3689 FILLER_0_69_81
*3690 FILLER_0_69_93
*3691 FILLER_0_6_109
*3692 FILLER_0_6_121
*3693 FILLER_0_6_133
*3694 FILLER_0_6_139
*3695 FILLER_0_6_141
*3696 FILLER_0_6_15
*3697 FILLER_0_6_153
*3698 FILLER_0_6_165
*3699 FILLER_0_6_177
*3700 FILLER_0_6_189
*3701 FILLER_0_6_195
*3702 FILLER_0_6_197
*3703 FILLER_0_6_209
*3704 FILLER_0_6_221
*3705 FILLER_0_6_233
*3706 FILLER_0_6_245
*3707 FILLER_0_6_251
*3708 FILLER_0_6_253
*3709 FILLER_0_6_265
*3710 FILLER_0_6_27
*3711 FILLER_0_6_277
*3712 FILLER_0_6_289
*3713 FILLER_0_6_29
*3714 FILLER_0_6_3
*3715 FILLER_0_6_301
*3716 FILLER_0_6_307
*3717 FILLER_0_6_309
*3718 FILLER_0_6_321
*3719 FILLER_0_6_333
*3720 FILLER_0_6_345
*3721 FILLER_0_6_357
*3722 FILLER_0_6_363
*3723 FILLER_0_6_365
*3724 FILLER_0_6_377
*3725 FILLER_0_6_389
*3726 FILLER_0_6_401
*3727 FILLER_0_6_41
*3728 FILLER_0_6_413
*3729 FILLER_0_6_419
*3730 FILLER_0_6_421
*3731 FILLER_0_6_433
*3732 FILLER_0_6_445
*3733 FILLER_0_6_457
*3734 FILLER_0_6_469
*3735 FILLER_0_6_475
*3736 FILLER_0_6_477
*3737 FILLER_0_6_489
*3738 FILLER_0_6_501
*3739 FILLER_0_6_53
*3740 FILLER_0_6_65
*3741 FILLER_0_6_77
*3742 FILLER_0_6_83
*3743 FILLER_0_6_85
*3744 FILLER_0_6_97
*3745 FILLER_0_70_109
*3746 FILLER_0_70_121
*3747 FILLER_0_70_133
*3748 FILLER_0_70_139
*3749 FILLER_0_70_141
*3750 FILLER_0_70_15
*3751 FILLER_0_70_153
*3752 FILLER_0_70_165
*3753 FILLER_0_70_177
*3754 FILLER_0_70_189
*3755 FILLER_0_70_195
*3756 FILLER_0_70_197
*3757 FILLER_0_70_209
*3758 FILLER_0_70_221
*3759 FILLER_0_70_233
*3760 FILLER_0_70_245
*3761 FILLER_0_70_251
*3762 FILLER_0_70_253
*3763 FILLER_0_70_265
*3764 FILLER_0_70_27
*3765 FILLER_0_70_277
*3766 FILLER_0_70_289
*3767 FILLER_0_70_29
*3768 FILLER_0_70_3
*3769 FILLER_0_70_301
*3770 FILLER_0_70_307
*3771 FILLER_0_70_309
*3772 FILLER_0_70_321
*3773 FILLER_0_70_333
*3774 FILLER_0_70_345
*3775 FILLER_0_70_357
*3776 FILLER_0_70_363
*3777 FILLER_0_70_365
*3778 FILLER_0_70_377
*3779 FILLER_0_70_389
*3780 FILLER_0_70_401
*3781 FILLER_0_70_41
*3782 FILLER_0_70_413
*3783 FILLER_0_70_419
*3784 FILLER_0_70_421
*3785 FILLER_0_70_433
*3786 FILLER_0_70_445
*3787 FILLER_0_70_457
*3788 FILLER_0_70_469
*3789 FILLER_0_70_475
*3790 FILLER_0_70_477
*3791 FILLER_0_70_489
*3792 FILLER_0_70_501
*3793 FILLER_0_70_513
*3794 FILLER_0_70_53
*3795 FILLER_0_70_65
*3796 FILLER_0_70_77
*3797 FILLER_0_70_83
*3798 FILLER_0_70_85
*3799 FILLER_0_70_97
*3800 FILLER_0_71_105
*3801 FILLER_0_71_111
*3802 FILLER_0_71_113
*3803 FILLER_0_71_125
*3804 FILLER_0_71_137
*3805 FILLER_0_71_149
*3806 FILLER_0_71_15
*3807 FILLER_0_71_161
*3808 FILLER_0_71_167
*3809 FILLER_0_71_169
*3810 FILLER_0_71_181
*3811 FILLER_0_71_193
*3812 FILLER_0_71_205
*3813 FILLER_0_71_217
*3814 FILLER_0_71_223
*3815 FILLER_0_71_225
*3816 FILLER_0_71_237
*3817 FILLER_0_71_249
*3818 FILLER_0_71_261
*3819 FILLER_0_71_27
*3820 FILLER_0_71_273
*3821 FILLER_0_71_279
*3822 FILLER_0_71_281
*3823 FILLER_0_71_293
*3824 FILLER_0_71_3
*3825 FILLER_0_71_305
*3826 FILLER_0_71_317
*3827 FILLER_0_71_329
*3828 FILLER_0_71_335
*3829 FILLER_0_71_337
*3830 FILLER_0_71_349
*3831 FILLER_0_71_361
*3832 FILLER_0_71_373
*3833 FILLER_0_71_385
*3834 FILLER_0_71_39
*3835 FILLER_0_71_391
*3836 FILLER_0_71_393
*3837 FILLER_0_71_405
*3838 FILLER_0_71_417
*3839 FILLER_0_71_429
*3840 FILLER_0_71_441
*3841 FILLER_0_71_447
*3842 FILLER_0_71_449
*3843 FILLER_0_71_461
*3844 FILLER_0_71_473
*3845 FILLER_0_71_485
*3846 FILLER_0_71_497
*3847 FILLER_0_71_503
*3848 FILLER_0_71_505
*3849 FILLER_0_71_51
*3850 FILLER_0_71_55
*3851 FILLER_0_71_57
*3852 FILLER_0_71_69
*3853 FILLER_0_71_81
*3854 FILLER_0_71_93
*3855 FILLER_0_72_109
*3856 FILLER_0_72_121
*3857 FILLER_0_72_133
*3858 FILLER_0_72_139
*3859 FILLER_0_72_141
*3860 FILLER_0_72_15
*3861 FILLER_0_72_153
*3862 FILLER_0_72_165
*3863 FILLER_0_72_177
*3864 FILLER_0_72_189
*3865 FILLER_0_72_195
*3866 FILLER_0_72_197
*3867 FILLER_0_72_209
*3868 FILLER_0_72_221
*3869 FILLER_0_72_233
*3870 FILLER_0_72_245
*3871 FILLER_0_72_251
*3872 FILLER_0_72_253
*3873 FILLER_0_72_265
*3874 FILLER_0_72_27
*3875 FILLER_0_72_277
*3876 FILLER_0_72_289
*3877 FILLER_0_72_29
*3878 FILLER_0_72_3
*3879 FILLER_0_72_301
*3880 FILLER_0_72_307
*3881 FILLER_0_72_309
*3882 FILLER_0_72_321
*3883 FILLER_0_72_333
*3884 FILLER_0_72_345
*3885 FILLER_0_72_357
*3886 FILLER_0_72_363
*3887 FILLER_0_72_365
*3888 FILLER_0_72_377
*3889 FILLER_0_72_389
*3890 FILLER_0_72_401
*3891 FILLER_0_72_41
*3892 FILLER_0_72_413
*3893 FILLER_0_72_419
*3894 FILLER_0_72_421
*3895 FILLER_0_72_433
*3896 FILLER_0_72_445
*3897 FILLER_0_72_457
*3898 FILLER_0_72_469
*3899 FILLER_0_72_475
*3900 FILLER_0_72_477
*3901 FILLER_0_72_489
*3902 FILLER_0_72_501
*3903 FILLER_0_72_513
*3904 FILLER_0_72_53
*3905 FILLER_0_72_65
*3906 FILLER_0_72_77
*3907 FILLER_0_72_83
*3908 FILLER_0_72_85
*3909 FILLER_0_72_97
*3910 FILLER_0_73_105
*3911 FILLER_0_73_111
*3912 FILLER_0_73_113
*3913 FILLER_0_73_125
*3914 FILLER_0_73_137
*3915 FILLER_0_73_149
*3916 FILLER_0_73_15
*3917 FILLER_0_73_161
*3918 FILLER_0_73_167
*3919 FILLER_0_73_169
*3920 FILLER_0_73_181
*3921 FILLER_0_73_193
*3922 FILLER_0_73_205
*3923 FILLER_0_73_217
*3924 FILLER_0_73_223
*3925 FILLER_0_73_225
*3926 FILLER_0_73_237
*3927 FILLER_0_73_249
*3928 FILLER_0_73_261
*3929 FILLER_0_73_27
*3930 FILLER_0_73_273
*3931 FILLER_0_73_279
*3932 FILLER_0_73_281
*3933 FILLER_0_73_293
*3934 FILLER_0_73_3
*3935 FILLER_0_73_305
*3936 FILLER_0_73_317
*3937 FILLER_0_73_329
*3938 FILLER_0_73_335
*3939 FILLER_0_73_337
*3940 FILLER_0_73_349
*3941 FILLER_0_73_361
*3942 FILLER_0_73_373
*3943 FILLER_0_73_385
*3944 FILLER_0_73_39
*3945 FILLER_0_73_391
*3946 FILLER_0_73_393
*3947 FILLER_0_73_405
*3948 FILLER_0_73_417
*3949 FILLER_0_73_429
*3950 FILLER_0_73_441
*3951 FILLER_0_73_447
*3952 FILLER_0_73_449
*3953 FILLER_0_73_461
*3954 FILLER_0_73_473
*3955 FILLER_0_73_485
*3956 FILLER_0_73_497
*3957 FILLER_0_73_503
*3958 FILLER_0_73_505
*3959 FILLER_0_73_51
*3960 FILLER_0_73_55
*3961 FILLER_0_73_57
*3962 FILLER_0_73_69
*3963 FILLER_0_73_81
*3964 FILLER_0_73_93
*3965 FILLER_0_74_109
*3966 FILLER_0_74_121
*3967 FILLER_0_74_133
*3968 FILLER_0_74_139
*3969 FILLER_0_74_141
*3970 FILLER_0_74_15
*3971 FILLER_0_74_153
*3972 FILLER_0_74_165
*3973 FILLER_0_74_177
*3974 FILLER_0_74_189
*3975 FILLER_0_74_195
*3976 FILLER_0_74_197
*3977 FILLER_0_74_209
*3978 FILLER_0_74_221
*3979 FILLER_0_74_233
*3980 FILLER_0_74_245
*3981 FILLER_0_74_251
*3982 FILLER_0_74_253
*3983 FILLER_0_74_265
*3984 FILLER_0_74_27
*3985 FILLER_0_74_277
*3986 FILLER_0_74_289
*3987 FILLER_0_74_29
*3988 FILLER_0_74_3
*3989 FILLER_0_74_301
*3990 FILLER_0_74_307
*3991 FILLER_0_74_309
*3992 FILLER_0_74_321
*3993 FILLER_0_74_333
*3994 FILLER_0_74_345
*3995 FILLER_0_74_357
*3996 FILLER_0_74_363
*3997 FILLER_0_74_365
*3998 FILLER_0_74_377
*3999 FILLER_0_74_389
*4000 FILLER_0_74_401
*4001 FILLER_0_74_41
*4002 FILLER_0_74_413
*4003 FILLER_0_74_419
*4004 FILLER_0_74_421
*4005 FILLER_0_74_433
*4006 FILLER_0_74_445
*4007 FILLER_0_74_457
*4008 FILLER_0_74_469
*4009 FILLER_0_74_475
*4010 FILLER_0_74_477
*4011 FILLER_0_74_489
*4012 FILLER_0_74_501
*4013 FILLER_0_74_513
*4014 FILLER_0_74_53
*4015 FILLER_0_74_65
*4016 FILLER_0_74_77
*4017 FILLER_0_74_83
*4018 FILLER_0_74_85
*4019 FILLER_0_74_97
*4020 FILLER_0_75_105
*4021 FILLER_0_75_111
*4022 FILLER_0_75_113
*4023 FILLER_0_75_125
*4024 FILLER_0_75_137
*4025 FILLER_0_75_149
*4026 FILLER_0_75_15
*4027 FILLER_0_75_161
*4028 FILLER_0_75_167
*4029 FILLER_0_75_169
*4030 FILLER_0_75_181
*4031 FILLER_0_75_193
*4032 FILLER_0_75_205
*4033 FILLER_0_75_217
*4034 FILLER_0_75_223
*4035 FILLER_0_75_225
*4036 FILLER_0_75_237
*4037 FILLER_0_75_249
*4038 FILLER_0_75_261
*4039 FILLER_0_75_27
*4040 FILLER_0_75_273
*4041 FILLER_0_75_279
*4042 FILLER_0_75_281
*4043 FILLER_0_75_293
*4044 FILLER_0_75_3
*4045 FILLER_0_75_305
*4046 FILLER_0_75_317
*4047 FILLER_0_75_329
*4048 FILLER_0_75_335
*4049 FILLER_0_75_337
*4050 FILLER_0_75_349
*4051 FILLER_0_75_361
*4052 FILLER_0_75_373
*4053 FILLER_0_75_385
*4054 FILLER_0_75_39
*4055 FILLER_0_75_391
*4056 FILLER_0_75_393
*4057 FILLER_0_75_405
*4058 FILLER_0_75_417
*4059 FILLER_0_75_429
*4060 FILLER_0_75_441
*4061 FILLER_0_75_447
*4062 FILLER_0_75_449
*4063 FILLER_0_75_461
*4064 FILLER_0_75_473
*4065 FILLER_0_75_485
*4066 FILLER_0_75_497
*4067 FILLER_0_75_503
*4068 FILLER_0_75_505
*4069 FILLER_0_75_51
*4070 FILLER_0_75_513
*4071 FILLER_0_75_55
*4072 FILLER_0_75_57
*4073 FILLER_0_75_69
*4074 FILLER_0_75_81
*4075 FILLER_0_75_93
*4076 FILLER_0_76_109
*4077 FILLER_0_76_121
*4078 FILLER_0_76_133
*4079 FILLER_0_76_139
*4080 FILLER_0_76_141
*4081 FILLER_0_76_153
*4082 FILLER_0_76_165
*4083 FILLER_0_76_177
*4084 FILLER_0_76_18
*4085 FILLER_0_76_189
*4086 FILLER_0_76_195
*4087 FILLER_0_76_197
*4088 FILLER_0_76_209
*4089 FILLER_0_76_221
*4090 FILLER_0_76_233
*4091 FILLER_0_76_245
*4092 FILLER_0_76_251
*4093 FILLER_0_76_253
*4094 FILLER_0_76_26
*4095 FILLER_0_76_265
*4096 FILLER_0_76_277
*4097 FILLER_0_76_289
*4098 FILLER_0_76_29
*4099 FILLER_0_76_301
*4100 FILLER_0_76_307
*4101 FILLER_0_76_309
*4102 FILLER_0_76_321
*4103 FILLER_0_76_333
*4104 FILLER_0_76_345
*4105 FILLER_0_76_357
*4106 FILLER_0_76_363
*4107 FILLER_0_76_365
*4108 FILLER_0_76_377
*4109 FILLER_0_76_389
*4110 FILLER_0_76_401
*4111 FILLER_0_76_41
*4112 FILLER_0_76_413
*4113 FILLER_0_76_419
*4114 FILLER_0_76_421
*4115 FILLER_0_76_433
*4116 FILLER_0_76_445
*4117 FILLER_0_76_457
*4118 FILLER_0_76_469
*4119 FILLER_0_76_475
*4120 FILLER_0_76_477
*4121 FILLER_0_76_489
*4122 FILLER_0_76_501
*4123 FILLER_0_76_53
*4124 FILLER_0_76_6
*4125 FILLER_0_76_65
*4126 FILLER_0_76_77
*4127 FILLER_0_76_83
*4128 FILLER_0_76_85
*4129 FILLER_0_76_97
*4130 FILLER_0_77_105
*4131 FILLER_0_77_111
*4132 FILLER_0_77_113
*4133 FILLER_0_77_125
*4134 FILLER_0_77_137
*4135 FILLER_0_77_149
*4136 FILLER_0_77_15
*4137 FILLER_0_77_161
*4138 FILLER_0_77_167
*4139 FILLER_0_77_169
*4140 FILLER_0_77_181
*4141 FILLER_0_77_193
*4142 FILLER_0_77_205
*4143 FILLER_0_77_217
*4144 FILLER_0_77_223
*4145 FILLER_0_77_225
*4146 FILLER_0_77_237
*4147 FILLER_0_77_249
*4148 FILLER_0_77_261
*4149 FILLER_0_77_27
*4150 FILLER_0_77_273
*4151 FILLER_0_77_279
*4152 FILLER_0_77_281
*4153 FILLER_0_77_293
*4154 FILLER_0_77_3
*4155 FILLER_0_77_305
*4156 FILLER_0_77_317
*4157 FILLER_0_77_329
*4158 FILLER_0_77_335
*4159 FILLER_0_77_337
*4160 FILLER_0_77_349
*4161 FILLER_0_77_361
*4162 FILLER_0_77_373
*4163 FILLER_0_77_385
*4164 FILLER_0_77_39
*4165 FILLER_0_77_391
*4166 FILLER_0_77_393
*4167 FILLER_0_77_405
*4168 FILLER_0_77_417
*4169 FILLER_0_77_429
*4170 FILLER_0_77_441
*4171 FILLER_0_77_447
*4172 FILLER_0_77_449
*4173 FILLER_0_77_461
*4174 FILLER_0_77_473
*4175 FILLER_0_77_485
*4176 FILLER_0_77_497
*4177 FILLER_0_77_503
*4178 FILLER_0_77_505
*4179 FILLER_0_77_51
*4180 FILLER_0_77_513
*4181 FILLER_0_77_55
*4182 FILLER_0_77_57
*4183 FILLER_0_77_69
*4184 FILLER_0_77_81
*4185 FILLER_0_77_93
*4186 FILLER_0_78_109
*4187 FILLER_0_78_121
*4188 FILLER_0_78_133
*4189 FILLER_0_78_139
*4190 FILLER_0_78_141
*4191 FILLER_0_78_15
*4192 FILLER_0_78_153
*4193 FILLER_0_78_165
*4194 FILLER_0_78_177
*4195 FILLER_0_78_189
*4196 FILLER_0_78_195
*4197 FILLER_0_78_197
*4198 FILLER_0_78_209
*4199 FILLER_0_78_221
*4200 FILLER_0_78_233
*4201 FILLER_0_78_245
*4202 FILLER_0_78_251
*4203 FILLER_0_78_253
*4204 FILLER_0_78_265
*4205 FILLER_0_78_27
*4206 FILLER_0_78_277
*4207 FILLER_0_78_289
*4208 FILLER_0_78_29
*4209 FILLER_0_78_3
*4210 FILLER_0_78_301
*4211 FILLER_0_78_307
*4212 FILLER_0_78_309
*4213 FILLER_0_78_321
*4214 FILLER_0_78_333
*4215 FILLER_0_78_345
*4216 FILLER_0_78_357
*4217 FILLER_0_78_363
*4218 FILLER_0_78_365
*4219 FILLER_0_78_377
*4220 FILLER_0_78_389
*4221 FILLER_0_78_401
*4222 FILLER_0_78_41
*4223 FILLER_0_78_413
*4224 FILLER_0_78_419
*4225 FILLER_0_78_421
*4226 FILLER_0_78_433
*4227 FILLER_0_78_445
*4228 FILLER_0_78_457
*4229 FILLER_0_78_469
*4230 FILLER_0_78_475
*4231 FILLER_0_78_477
*4232 FILLER_0_78_489
*4233 FILLER_0_78_501
*4234 FILLER_0_78_53
*4235 FILLER_0_78_65
*4236 FILLER_0_78_77
*4237 FILLER_0_78_83
*4238 FILLER_0_78_85
*4239 FILLER_0_78_97
*4240 FILLER_0_79_105
*4241 FILLER_0_79_111
*4242 FILLER_0_79_113
*4243 FILLER_0_79_125
*4244 FILLER_0_79_137
*4245 FILLER_0_79_149
*4246 FILLER_0_79_15
*4247 FILLER_0_79_161
*4248 FILLER_0_79_167
*4249 FILLER_0_79_169
*4250 FILLER_0_79_181
*4251 FILLER_0_79_193
*4252 FILLER_0_79_205
*4253 FILLER_0_79_217
*4254 FILLER_0_79_223
*4255 FILLER_0_79_225
*4256 FILLER_0_79_237
*4257 FILLER_0_79_249
*4258 FILLER_0_79_261
*4259 FILLER_0_79_27
*4260 FILLER_0_79_273
*4261 FILLER_0_79_279
*4262 FILLER_0_79_281
*4263 FILLER_0_79_293
*4264 FILLER_0_79_3
*4265 FILLER_0_79_305
*4266 FILLER_0_79_317
*4267 FILLER_0_79_329
*4268 FILLER_0_79_335
*4269 FILLER_0_79_337
*4270 FILLER_0_79_349
*4271 FILLER_0_79_361
*4272 FILLER_0_79_373
*4273 FILLER_0_79_385
*4274 FILLER_0_79_39
*4275 FILLER_0_79_391
*4276 FILLER_0_79_393
*4277 FILLER_0_79_405
*4278 FILLER_0_79_417
*4279 FILLER_0_79_429
*4280 FILLER_0_79_441
*4281 FILLER_0_79_447
*4282 FILLER_0_79_449
*4283 FILLER_0_79_461
*4284 FILLER_0_79_473
*4285 FILLER_0_79_485
*4286 FILLER_0_79_497
*4287 FILLER_0_79_503
*4288 FILLER_0_79_505
*4289 FILLER_0_79_51
*4290 FILLER_0_79_513
*4291 FILLER_0_79_55
*4292 FILLER_0_79_57
*4293 FILLER_0_79_69
*4294 FILLER_0_79_81
*4295 FILLER_0_79_93
*4296 FILLER_0_7_105
*4297 FILLER_0_7_111
*4298 FILLER_0_7_113
*4299 FILLER_0_7_125
*4300 FILLER_0_7_137
*4301 FILLER_0_7_149
*4302 FILLER_0_7_161
*4303 FILLER_0_7_167
*4304 FILLER_0_7_169
*4305 FILLER_0_7_18
*4306 FILLER_0_7_181
*4307 FILLER_0_7_193
*4308 FILLER_0_7_205
*4309 FILLER_0_7_217
*4310 FILLER_0_7_223
*4311 FILLER_0_7_225
*4312 FILLER_0_7_237
*4313 FILLER_0_7_249
*4314 FILLER_0_7_261
*4315 FILLER_0_7_273
*4316 FILLER_0_7_279
*4317 FILLER_0_7_281
*4318 FILLER_0_7_293
*4319 FILLER_0_7_30
*4320 FILLER_0_7_305
*4321 FILLER_0_7_317
*4322 FILLER_0_7_329
*4323 FILLER_0_7_335
*4324 FILLER_0_7_337
*4325 FILLER_0_7_349
*4326 FILLER_0_7_361
*4327 FILLER_0_7_373
*4328 FILLER_0_7_385
*4329 FILLER_0_7_391
*4330 FILLER_0_7_393
*4331 FILLER_0_7_405
*4332 FILLER_0_7_417
*4333 FILLER_0_7_42
*4334 FILLER_0_7_429
*4335 FILLER_0_7_441
*4336 FILLER_0_7_447
*4337 FILLER_0_7_449
*4338 FILLER_0_7_461
*4339 FILLER_0_7_473
*4340 FILLER_0_7_485
*4341 FILLER_0_7_497
*4342 FILLER_0_7_503
*4343 FILLER_0_7_505
*4344 FILLER_0_7_513
*4345 FILLER_0_7_54
*4346 FILLER_0_7_57
*4347 FILLER_0_7_6
*4348 FILLER_0_7_69
*4349 FILLER_0_7_81
*4350 FILLER_0_7_93
*4351 FILLER_0_80_109
*4352 FILLER_0_80_121
*4353 FILLER_0_80_133
*4354 FILLER_0_80_139
*4355 FILLER_0_80_141
*4356 FILLER_0_80_15
*4357 FILLER_0_80_153
*4358 FILLER_0_80_165
*4359 FILLER_0_80_177
*4360 FILLER_0_80_189
*4361 FILLER_0_80_195
*4362 FILLER_0_80_197
*4363 FILLER_0_80_209
*4364 FILLER_0_80_221
*4365 FILLER_0_80_233
*4366 FILLER_0_80_245
*4367 FILLER_0_80_251
*4368 FILLER_0_80_253
*4369 FILLER_0_80_265
*4370 FILLER_0_80_27
*4371 FILLER_0_80_277
*4372 FILLER_0_80_289
*4373 FILLER_0_80_29
*4374 FILLER_0_80_3
*4375 FILLER_0_80_301
*4376 FILLER_0_80_307
*4377 FILLER_0_80_309
*4378 FILLER_0_80_321
*4379 FILLER_0_80_333
*4380 FILLER_0_80_345
*4381 FILLER_0_80_357
*4382 FILLER_0_80_363
*4383 FILLER_0_80_365
*4384 FILLER_0_80_377
*4385 FILLER_0_80_389
*4386 FILLER_0_80_401
*4387 FILLER_0_80_41
*4388 FILLER_0_80_413
*4389 FILLER_0_80_419
*4390 FILLER_0_80_421
*4391 FILLER_0_80_433
*4392 FILLER_0_80_445
*4393 FILLER_0_80_457
*4394 FILLER_0_80_469
*4395 FILLER_0_80_475
*4396 FILLER_0_80_477
*4397 FILLER_0_80_489
*4398 FILLER_0_80_501
*4399 FILLER_0_80_513
*4400 FILLER_0_80_53
*4401 FILLER_0_80_65
*4402 FILLER_0_80_77
*4403 FILLER_0_80_83
*4404 FILLER_0_80_85
*4405 FILLER_0_80_97
*4406 FILLER_0_81_105
*4407 FILLER_0_81_111
*4408 FILLER_0_81_113
*4409 FILLER_0_81_125
*4410 FILLER_0_81_137
*4411 FILLER_0_81_149
*4412 FILLER_0_81_15
*4413 FILLER_0_81_161
*4414 FILLER_0_81_167
*4415 FILLER_0_81_169
*4416 FILLER_0_81_181
*4417 FILLER_0_81_193
*4418 FILLER_0_81_205
*4419 FILLER_0_81_217
*4420 FILLER_0_81_223
*4421 FILLER_0_81_225
*4422 FILLER_0_81_237
*4423 FILLER_0_81_249
*4424 FILLER_0_81_261
*4425 FILLER_0_81_27
*4426 FILLER_0_81_273
*4427 FILLER_0_81_279
*4428 FILLER_0_81_281
*4429 FILLER_0_81_293
*4430 FILLER_0_81_3
*4431 FILLER_0_81_305
*4432 FILLER_0_81_317
*4433 FILLER_0_81_329
*4434 FILLER_0_81_335
*4435 FILLER_0_81_337
*4436 FILLER_0_81_349
*4437 FILLER_0_81_361
*4438 FILLER_0_81_373
*4439 FILLER_0_81_385
*4440 FILLER_0_81_39
*4441 FILLER_0_81_391
*4442 FILLER_0_81_393
*4443 FILLER_0_81_405
*4444 FILLER_0_81_417
*4445 FILLER_0_81_429
*4446 FILLER_0_81_441
*4447 FILLER_0_81_447
*4448 FILLER_0_81_449
*4449 FILLER_0_81_461
*4450 FILLER_0_81_473
*4451 FILLER_0_81_485
*4452 FILLER_0_81_497
*4453 FILLER_0_81_503
*4454 FILLER_0_81_505
*4455 FILLER_0_81_51
*4456 FILLER_0_81_55
*4457 FILLER_0_81_57
*4458 FILLER_0_81_69
*4459 FILLER_0_81_81
*4460 FILLER_0_81_93
*4461 FILLER_0_82_109
*4462 FILLER_0_82_113
*4463 FILLER_0_82_125
*4464 FILLER_0_82_137
*4465 FILLER_0_82_141
*4466 FILLER_0_82_15
*4467 FILLER_0_82_153
*4468 FILLER_0_82_165
*4469 FILLER_0_82_169
*4470 FILLER_0_82_181
*4471 FILLER_0_82_193
*4472 FILLER_0_82_197
*4473 FILLER_0_82_209
*4474 FILLER_0_82_221
*4475 FILLER_0_82_225
*4476 FILLER_0_82_237
*4477 FILLER_0_82_249
*4478 FILLER_0_82_253
*4479 FILLER_0_82_265
*4480 FILLER_0_82_27
*4481 FILLER_0_82_277
*4482 FILLER_0_82_281
*4483 FILLER_0_82_29
*4484 FILLER_0_82_293
*4485 FILLER_0_82_3
*4486 FILLER_0_82_305
*4487 FILLER_0_82_309
*4488 FILLER_0_82_321
*4489 FILLER_0_82_333
*4490 FILLER_0_82_337
*4491 FILLER_0_82_349
*4492 FILLER_0_82_361
*4493 FILLER_0_82_365
*4494 FILLER_0_82_377
*4495 FILLER_0_82_389
*4496 FILLER_0_82_393
*4497 FILLER_0_82_405
*4498 FILLER_0_82_41
*4499 FILLER_0_82_417
*4500 FILLER_0_82_421
*4501 FILLER_0_82_433
*4502 FILLER_0_82_445
*4503 FILLER_0_82_449
*4504 FILLER_0_82_461
*4505 FILLER_0_82_473
*4506 FILLER_0_82_477
*4507 FILLER_0_82_489
*4508 FILLER_0_82_501
*4509 FILLER_0_82_505
*4510 FILLER_0_82_513
*4511 FILLER_0_82_53
*4512 FILLER_0_82_57
*4513 FILLER_0_82_69
*4514 FILLER_0_82_81
*4515 FILLER_0_82_85
*4516 FILLER_0_82_97
*4517 FILLER_0_8_109
*4518 FILLER_0_8_121
*4519 FILLER_0_8_133
*4520 FILLER_0_8_139
*4521 FILLER_0_8_141
*4522 FILLER_0_8_15
*4523 FILLER_0_8_153
*4524 FILLER_0_8_165
*4525 FILLER_0_8_177
*4526 FILLER_0_8_189
*4527 FILLER_0_8_195
*4528 FILLER_0_8_197
*4529 FILLER_0_8_209
*4530 FILLER_0_8_221
*4531 FILLER_0_8_233
*4532 FILLER_0_8_245
*4533 FILLER_0_8_251
*4534 FILLER_0_8_253
*4535 FILLER_0_8_265
*4536 FILLER_0_8_27
*4537 FILLER_0_8_277
*4538 FILLER_0_8_289
*4539 FILLER_0_8_29
*4540 FILLER_0_8_3
*4541 FILLER_0_8_301
*4542 FILLER_0_8_307
*4543 FILLER_0_8_309
*4544 FILLER_0_8_321
*4545 FILLER_0_8_333
*4546 FILLER_0_8_345
*4547 FILLER_0_8_357
*4548 FILLER_0_8_363
*4549 FILLER_0_8_365
*4550 FILLER_0_8_377
*4551 FILLER_0_8_389
*4552 FILLER_0_8_401
*4553 FILLER_0_8_41
*4554 FILLER_0_8_413
*4555 FILLER_0_8_419
*4556 FILLER_0_8_421
*4557 FILLER_0_8_433
*4558 FILLER_0_8_445
*4559 FILLER_0_8_457
*4560 FILLER_0_8_469
*4561 FILLER_0_8_475
*4562 FILLER_0_8_477
*4563 FILLER_0_8_489
*4564 FILLER_0_8_501
*4565 FILLER_0_8_53
*4566 FILLER_0_8_65
*4567 FILLER_0_8_77
*4568 FILLER_0_8_83
*4569 FILLER_0_8_85
*4570 FILLER_0_8_97
*4571 FILLER_0_9_105
*4572 FILLER_0_9_111
*4573 FILLER_0_9_113
*4574 FILLER_0_9_125
*4575 FILLER_0_9_137
*4576 FILLER_0_9_149
*4577 FILLER_0_9_15
*4578 FILLER_0_9_161
*4579 FILLER_0_9_167
*4580 FILLER_0_9_169
*4581 FILLER_0_9_181
*4582 FILLER_0_9_193
*4583 FILLER_0_9_205
*4584 FILLER_0_9_217
*4585 FILLER_0_9_223
*4586 FILLER_0_9_225
*4587 FILLER_0_9_237
*4588 FILLER_0_9_249
*4589 FILLER_0_9_261
*4590 FILLER_0_9_27
*4591 FILLER_0_9_273
*4592 FILLER_0_9_279
*4593 FILLER_0_9_281
*4594 FILLER_0_9_293
*4595 FILLER_0_9_3
*4596 FILLER_0_9_305
*4597 FILLER_0_9_317
*4598 FILLER_0_9_329
*4599 FILLER_0_9_335
*4600 FILLER_0_9_337
*4601 FILLER_0_9_349
*4602 FILLER_0_9_361
*4603 FILLER_0_9_373
*4604 FILLER_0_9_385
*4605 FILLER_0_9_39
*4606 FILLER_0_9_391
*4607 FILLER_0_9_393
*4608 FILLER_0_9_405
*4609 FILLER_0_9_417
*4610 FILLER_0_9_429
*4611 FILLER_0_9_441
*4612 FILLER_0_9_447
*4613 FILLER_0_9_449
*4614 FILLER_0_9_461
*4615 FILLER_0_9_473
*4616 FILLER_0_9_485
*4617 FILLER_0_9_497
*4618 FILLER_0_9_503
*4619 FILLER_0_9_505
*4620 FILLER_0_9_51
*4621 FILLER_0_9_513
*4622 FILLER_0_9_55
*4623 FILLER_0_9_57
*4624 FILLER_0_9_69
*4625 FILLER_0_9_81
*4626 FILLER_0_9_93
*4627 PHY_EDGE_ROW_0_Left_83
*4628 PHY_EDGE_ROW_0_Right_0
*4629 PHY_EDGE_ROW_10_Left_93
*4630 PHY_EDGE_ROW_10_Right_10
*4631 PHY_EDGE_ROW_11_Left_94
*4632 PHY_EDGE_ROW_11_Right_11
*4633 PHY_EDGE_ROW_12_Left_95
*4634 PHY_EDGE_ROW_12_Right_12
*4635 PHY_EDGE_ROW_13_Left_96
*4636 PHY_EDGE_ROW_13_Right_13
*4637 PHY_EDGE_ROW_14_Left_97
*4638 PHY_EDGE_ROW_14_Right_14
*4639 PHY_EDGE_ROW_15_Left_98
*4640 PHY_EDGE_ROW_15_Right_15
*4641 PHY_EDGE_ROW_16_Left_99
*4642 PHY_EDGE_ROW_16_Right_16
*4643 PHY_EDGE_ROW_17_Left_100
*4644 PHY_EDGE_ROW_17_Right_17
*4645 PHY_EDGE_ROW_18_Left_101
*4646 PHY_EDGE_ROW_18_Right_18
*4647 PHY_EDGE_ROW_19_Left_102
*4648 PHY_EDGE_ROW_19_Right_19
*4649 PHY_EDGE_ROW_1_Left_84
*4650 PHY_EDGE_ROW_1_Right_1
*4651 PHY_EDGE_ROW_20_Left_103
*4652 PHY_EDGE_ROW_20_Right_20
*4653 PHY_EDGE_ROW_21_Left_104
*4654 PHY_EDGE_ROW_21_Right_21
*4655 PHY_EDGE_ROW_22_Left_105
*4656 PHY_EDGE_ROW_22_Right_22
*4657 PHY_EDGE_ROW_23_Left_106
*4658 PHY_EDGE_ROW_23_Right_23
*4659 PHY_EDGE_ROW_24_Left_107
*4660 PHY_EDGE_ROW_24_Right_24
*4661 PHY_EDGE_ROW_25_Left_108
*4662 PHY_EDGE_ROW_25_Right_25
*4663 PHY_EDGE_ROW_26_Left_109
*4664 PHY_EDGE_ROW_26_Right_26
*4665 PHY_EDGE_ROW_27_Left_110
*4666 PHY_EDGE_ROW_27_Right_27
*4667 PHY_EDGE_ROW_28_Left_111
*4668 PHY_EDGE_ROW_28_Right_28
*4669 PHY_EDGE_ROW_29_Left_112
*4670 PHY_EDGE_ROW_29_Right_29
*4671 PHY_EDGE_ROW_2_Left_85
*4672 PHY_EDGE_ROW_2_Right_2
*4673 PHY_EDGE_ROW_30_Left_113
*4674 PHY_EDGE_ROW_30_Right_30
*4675 PHY_EDGE_ROW_31_Left_114
*4676 PHY_EDGE_ROW_31_Right_31
*4677 PHY_EDGE_ROW_32_Left_115
*4678 PHY_EDGE_ROW_32_Right_32
*4679 PHY_EDGE_ROW_33_Left_116
*4680 PHY_EDGE_ROW_33_Right_33
*4681 PHY_EDGE_ROW_34_Left_117
*4682 PHY_EDGE_ROW_34_Right_34
*4683 PHY_EDGE_ROW_35_Left_118
*4684 PHY_EDGE_ROW_35_Right_35
*4685 PHY_EDGE_ROW_36_Left_119
*4686 PHY_EDGE_ROW_36_Right_36
*4687 PHY_EDGE_ROW_37_Left_120
*4688 PHY_EDGE_ROW_37_Right_37
*4689 PHY_EDGE_ROW_38_Left_121
*4690 PHY_EDGE_ROW_38_Right_38
*4691 PHY_EDGE_ROW_39_Left_122
*4692 PHY_EDGE_ROW_39_Right_39
*4693 PHY_EDGE_ROW_3_Left_86
*4694 PHY_EDGE_ROW_3_Right_3
*4695 PHY_EDGE_ROW_40_Left_123
*4696 PHY_EDGE_ROW_40_Right_40
*4697 PHY_EDGE_ROW_41_Left_124
*4698 PHY_EDGE_ROW_41_Right_41
*4699 PHY_EDGE_ROW_42_Left_125
*4700 PHY_EDGE_ROW_42_Right_42
*4701 PHY_EDGE_ROW_43_Left_126
*4702 PHY_EDGE_ROW_43_Right_43
*4703 PHY_EDGE_ROW_44_Left_127
*4704 PHY_EDGE_ROW_44_Right_44
*4705 PHY_EDGE_ROW_45_Left_128
*4706 PHY_EDGE_ROW_45_Right_45
*4707 PHY_EDGE_ROW_46_Left_129
*4708 PHY_EDGE_ROW_46_Right_46
*4709 PHY_EDGE_ROW_47_Left_130
*4710 PHY_EDGE_ROW_47_Right_47
*4711 PHY_EDGE_ROW_48_Left_131
*4712 PHY_EDGE_ROW_48_Right_48
*4713 PHY_EDGE_ROW_49_Left_132
*4714 PHY_EDGE_ROW_49_Right_49
*4715 PHY_EDGE_ROW_4_Left_87
*4716 PHY_EDGE_ROW_4_Right_4
*4717 PHY_EDGE_ROW_50_Left_133
*4718 PHY_EDGE_ROW_50_Right_50
*4719 PHY_EDGE_ROW_51_Left_134
*4720 PHY_EDGE_ROW_51_Right_51
*4721 PHY_EDGE_ROW_52_Left_135
*4722 PHY_EDGE_ROW_52_Right_52
*4723 PHY_EDGE_ROW_53_Left_136
*4724 PHY_EDGE_ROW_53_Right_53
*4725 PHY_EDGE_ROW_54_Left_137
*4726 PHY_EDGE_ROW_54_Right_54
*4727 PHY_EDGE_ROW_55_Left_138
*4728 PHY_EDGE_ROW_55_Right_55
*4729 PHY_EDGE_ROW_56_Left_139
*4730 PHY_EDGE_ROW_56_Right_56
*4731 PHY_EDGE_ROW_57_Left_140
*4732 PHY_EDGE_ROW_57_Right_57
*4733 PHY_EDGE_ROW_58_Left_141
*4734 PHY_EDGE_ROW_58_Right_58
*4735 PHY_EDGE_ROW_59_Left_142
*4736 PHY_EDGE_ROW_59_Right_59
*4737 PHY_EDGE_ROW_5_Left_88
*4738 PHY_EDGE_ROW_5_Right_5
*4739 PHY_EDGE_ROW_60_Left_143
*4740 PHY_EDGE_ROW_60_Right_60
*4741 PHY_EDGE_ROW_61_Left_144
*4742 PHY_EDGE_ROW_61_Right_61
*4743 PHY_EDGE_ROW_62_Left_145
*4744 PHY_EDGE_ROW_62_Right_62
*4745 PHY_EDGE_ROW_63_Left_146
*4746 PHY_EDGE_ROW_63_Right_63
*4747 PHY_EDGE_ROW_64_Left_147
*4748 PHY_EDGE_ROW_64_Right_64
*4749 PHY_EDGE_ROW_65_Left_148
*4750 PHY_EDGE_ROW_65_Right_65
*4751 PHY_EDGE_ROW_66_Left_149
*4752 PHY_EDGE_ROW_66_Right_66
*4753 PHY_EDGE_ROW_67_Left_150
*4754 PHY_EDGE_ROW_67_Right_67
*4755 PHY_EDGE_ROW_68_Left_151
*4756 PHY_EDGE_ROW_68_Right_68
*4757 PHY_EDGE_ROW_69_Left_152
*4758 PHY_EDGE_ROW_69_Right_69
*4759 PHY_EDGE_ROW_6_Left_89
*4760 PHY_EDGE_ROW_6_Right_6
*4761 PHY_EDGE_ROW_70_Left_153
*4762 PHY_EDGE_ROW_70_Right_70
*4763 PHY_EDGE_ROW_71_Left_154
*4764 PHY_EDGE_ROW_71_Right_71
*4765 PHY_EDGE_ROW_72_Left_155
*4766 PHY_EDGE_ROW_72_Right_72
*4767 PHY_EDGE_ROW_73_Left_156
*4768 PHY_EDGE_ROW_73_Right_73
*4769 PHY_EDGE_ROW_74_Left_157
*4770 PHY_EDGE_ROW_74_Right_74
*4771 PHY_EDGE_ROW_75_Left_158
*4772 PHY_EDGE_ROW_75_Right_75
*4773 PHY_EDGE_ROW_76_Left_159
*4774 PHY_EDGE_ROW_76_Right_76
*4775 PHY_EDGE_ROW_77_Left_160
*4776 PHY_EDGE_ROW_77_Right_77
*4777 PHY_EDGE_ROW_78_Left_161
*4778 PHY_EDGE_ROW_78_Right_78
*4779 PHY_EDGE_ROW_79_Left_162
*4780 PHY_EDGE_ROW_79_Right_79
*4781 PHY_EDGE_ROW_7_Left_90
*4782 PHY_EDGE_ROW_7_Right_7
*4783 PHY_EDGE_ROW_80_Left_163
*4784 PHY_EDGE_ROW_80_Right_80
*4785 PHY_EDGE_ROW_81_Left_164
*4786 PHY_EDGE_ROW_81_Right_81
*4787 PHY_EDGE_ROW_82_Left_165
*4788 PHY_EDGE_ROW_82_Right_82
*4789 PHY_EDGE_ROW_8_Left_91
*4790 PHY_EDGE_ROW_8_Right_8
*4791 PHY_EDGE_ROW_9_Left_92
*4792 PHY_EDGE_ROW_9_Right_9
*4793 TAP_TAPCELL_ROW_0_166
*4794 TAP_TAPCELL_ROW_0_167
*4795 TAP_TAPCELL_ROW_0_168
*4796 TAP_TAPCELL_ROW_0_169
*4797 TAP_TAPCELL_ROW_0_170
*4798 TAP_TAPCELL_ROW_0_171
*4799 TAP_TAPCELL_ROW_0_172
*4800 TAP_TAPCELL_ROW_0_173
*4801 TAP_TAPCELL_ROW_0_174
*4802 TAP_TAPCELL_ROW_0_175
*4803 TAP_TAPCELL_ROW_0_176
*4804 TAP_TAPCELL_ROW_0_177
*4805 TAP_TAPCELL_ROW_0_178
*4806 TAP_TAPCELL_ROW_0_179
*4807 TAP_TAPCELL_ROW_0_180
*4808 TAP_TAPCELL_ROW_0_181
*4809 TAP_TAPCELL_ROW_0_182
*4810 TAP_TAPCELL_ROW_0_183
*4811 TAP_TAPCELL_ROW_10_265
*4812 TAP_TAPCELL_ROW_10_266
*4813 TAP_TAPCELL_ROW_10_267
*4814 TAP_TAPCELL_ROW_10_268
*4815 TAP_TAPCELL_ROW_10_269
*4816 TAP_TAPCELL_ROW_10_270
*4817 TAP_TAPCELL_ROW_10_271
*4818 TAP_TAPCELL_ROW_10_272
*4819 TAP_TAPCELL_ROW_10_273
*4820 TAP_TAPCELL_ROW_11_274
*4821 TAP_TAPCELL_ROW_11_275
*4822 TAP_TAPCELL_ROW_11_276
*4823 TAP_TAPCELL_ROW_11_277
*4824 TAP_TAPCELL_ROW_11_278
*4825 TAP_TAPCELL_ROW_11_279
*4826 TAP_TAPCELL_ROW_11_280
*4827 TAP_TAPCELL_ROW_11_281
*4828 TAP_TAPCELL_ROW_11_282
*4829 TAP_TAPCELL_ROW_12_283
*4830 TAP_TAPCELL_ROW_12_284
*4831 TAP_TAPCELL_ROW_12_285
*4832 TAP_TAPCELL_ROW_12_286
*4833 TAP_TAPCELL_ROW_12_287
*4834 TAP_TAPCELL_ROW_12_288
*4835 TAP_TAPCELL_ROW_12_289
*4836 TAP_TAPCELL_ROW_12_290
*4837 TAP_TAPCELL_ROW_12_291
*4838 TAP_TAPCELL_ROW_13_292
*4839 TAP_TAPCELL_ROW_13_293
*4840 TAP_TAPCELL_ROW_13_294
*4841 TAP_TAPCELL_ROW_13_295
*4842 TAP_TAPCELL_ROW_13_296
*4843 TAP_TAPCELL_ROW_13_297
*4844 TAP_TAPCELL_ROW_13_298
*4845 TAP_TAPCELL_ROW_13_299
*4846 TAP_TAPCELL_ROW_13_300
*4847 TAP_TAPCELL_ROW_14_301
*4848 TAP_TAPCELL_ROW_14_302
*4849 TAP_TAPCELL_ROW_14_303
*4850 TAP_TAPCELL_ROW_14_304
*4851 TAP_TAPCELL_ROW_14_305
*4852 TAP_TAPCELL_ROW_14_306
*4853 TAP_TAPCELL_ROW_14_307
*4854 TAP_TAPCELL_ROW_14_308
*4855 TAP_TAPCELL_ROW_14_309
*4856 TAP_TAPCELL_ROW_15_310
*4857 TAP_TAPCELL_ROW_15_311
*4858 TAP_TAPCELL_ROW_15_312
*4859 TAP_TAPCELL_ROW_15_313
*4860 TAP_TAPCELL_ROW_15_314
*4861 TAP_TAPCELL_ROW_15_315
*4862 TAP_TAPCELL_ROW_15_316
*4863 TAP_TAPCELL_ROW_15_317
*4864 TAP_TAPCELL_ROW_15_318
*4865 TAP_TAPCELL_ROW_16_319
*4866 TAP_TAPCELL_ROW_16_320
*4867 TAP_TAPCELL_ROW_16_321
*4868 TAP_TAPCELL_ROW_16_322
*4869 TAP_TAPCELL_ROW_16_323
*4870 TAP_TAPCELL_ROW_16_324
*4871 TAP_TAPCELL_ROW_16_325
*4872 TAP_TAPCELL_ROW_16_326
*4873 TAP_TAPCELL_ROW_16_327
*4874 TAP_TAPCELL_ROW_17_328
*4875 TAP_TAPCELL_ROW_17_329
*4876 TAP_TAPCELL_ROW_17_330
*4877 TAP_TAPCELL_ROW_17_331
*4878 TAP_TAPCELL_ROW_17_332
*4879 TAP_TAPCELL_ROW_17_333
*4880 TAP_TAPCELL_ROW_17_334
*4881 TAP_TAPCELL_ROW_17_335
*4882 TAP_TAPCELL_ROW_17_336
*4883 TAP_TAPCELL_ROW_18_337
*4884 TAP_TAPCELL_ROW_18_338
*4885 TAP_TAPCELL_ROW_18_339
*4886 TAP_TAPCELL_ROW_18_340
*4887 TAP_TAPCELL_ROW_18_341
*4888 TAP_TAPCELL_ROW_18_342
*4889 TAP_TAPCELL_ROW_18_343
*4890 TAP_TAPCELL_ROW_18_344
*4891 TAP_TAPCELL_ROW_18_345
*4892 TAP_TAPCELL_ROW_19_346
*4893 TAP_TAPCELL_ROW_19_347
*4894 TAP_TAPCELL_ROW_19_348
*4895 TAP_TAPCELL_ROW_19_349
*4896 TAP_TAPCELL_ROW_19_350
*4897 TAP_TAPCELL_ROW_19_351
*4898 TAP_TAPCELL_ROW_19_352
*4899 TAP_TAPCELL_ROW_19_353
*4900 TAP_TAPCELL_ROW_19_354
*4901 TAP_TAPCELL_ROW_1_184
*4902 TAP_TAPCELL_ROW_1_185
*4903 TAP_TAPCELL_ROW_1_186
*4904 TAP_TAPCELL_ROW_1_187
*4905 TAP_TAPCELL_ROW_1_188
*4906 TAP_TAPCELL_ROW_1_189
*4907 TAP_TAPCELL_ROW_1_190
*4908 TAP_TAPCELL_ROW_1_191
*4909 TAP_TAPCELL_ROW_1_192
*4910 TAP_TAPCELL_ROW_20_355
*4911 TAP_TAPCELL_ROW_20_356
*4912 TAP_TAPCELL_ROW_20_357
*4913 TAP_TAPCELL_ROW_20_358
*4914 TAP_TAPCELL_ROW_20_359
*4915 TAP_TAPCELL_ROW_20_360
*4916 TAP_TAPCELL_ROW_20_361
*4917 TAP_TAPCELL_ROW_20_362
*4918 TAP_TAPCELL_ROW_20_363
*4919 TAP_TAPCELL_ROW_21_364
*4920 TAP_TAPCELL_ROW_21_365
*4921 TAP_TAPCELL_ROW_21_366
*4922 TAP_TAPCELL_ROW_21_367
*4923 TAP_TAPCELL_ROW_21_368
*4924 TAP_TAPCELL_ROW_21_369
*4925 TAP_TAPCELL_ROW_21_370
*4926 TAP_TAPCELL_ROW_21_371
*4927 TAP_TAPCELL_ROW_21_372
*4928 TAP_TAPCELL_ROW_22_373
*4929 TAP_TAPCELL_ROW_22_374
*4930 TAP_TAPCELL_ROW_22_375
*4931 TAP_TAPCELL_ROW_22_376
*4932 TAP_TAPCELL_ROW_22_377
*4933 TAP_TAPCELL_ROW_22_378
*4934 TAP_TAPCELL_ROW_22_379
*4935 TAP_TAPCELL_ROW_22_380
*4936 TAP_TAPCELL_ROW_22_381
*4937 TAP_TAPCELL_ROW_23_382
*4938 TAP_TAPCELL_ROW_23_383
*4939 TAP_TAPCELL_ROW_23_384
*4940 TAP_TAPCELL_ROW_23_385
*4941 TAP_TAPCELL_ROW_23_386
*4942 TAP_TAPCELL_ROW_23_387
*4943 TAP_TAPCELL_ROW_23_388
*4944 TAP_TAPCELL_ROW_23_389
*4945 TAP_TAPCELL_ROW_23_390
*4946 TAP_TAPCELL_ROW_24_391
*4947 TAP_TAPCELL_ROW_24_392
*4948 TAP_TAPCELL_ROW_24_393
*4949 TAP_TAPCELL_ROW_24_394
*4950 TAP_TAPCELL_ROW_24_395
*4951 TAP_TAPCELL_ROW_24_396
*4952 TAP_TAPCELL_ROW_24_397
*4953 TAP_TAPCELL_ROW_24_398
*4954 TAP_TAPCELL_ROW_24_399
*4955 TAP_TAPCELL_ROW_25_400
*4956 TAP_TAPCELL_ROW_25_401
*4957 TAP_TAPCELL_ROW_25_402
*4958 TAP_TAPCELL_ROW_25_403
*4959 TAP_TAPCELL_ROW_25_404
*4960 TAP_TAPCELL_ROW_25_405
*4961 TAP_TAPCELL_ROW_25_406
*4962 TAP_TAPCELL_ROW_25_407
*4963 TAP_TAPCELL_ROW_25_408
*4964 TAP_TAPCELL_ROW_26_409
*4965 TAP_TAPCELL_ROW_26_410
*4966 TAP_TAPCELL_ROW_26_411
*4967 TAP_TAPCELL_ROW_26_412
*4968 TAP_TAPCELL_ROW_26_413
*4969 TAP_TAPCELL_ROW_26_414
*4970 TAP_TAPCELL_ROW_26_415
*4971 TAP_TAPCELL_ROW_26_416
*4972 TAP_TAPCELL_ROW_26_417
*4973 TAP_TAPCELL_ROW_27_418
*4974 TAP_TAPCELL_ROW_27_419
*4975 TAP_TAPCELL_ROW_27_420
*4976 TAP_TAPCELL_ROW_27_421
*4977 TAP_TAPCELL_ROW_27_422
*4978 TAP_TAPCELL_ROW_27_423
*4979 TAP_TAPCELL_ROW_27_424
*4980 TAP_TAPCELL_ROW_27_425
*4981 TAP_TAPCELL_ROW_27_426
*4982 TAP_TAPCELL_ROW_28_427
*4983 TAP_TAPCELL_ROW_28_428
*4984 TAP_TAPCELL_ROW_28_429
*4985 TAP_TAPCELL_ROW_28_430
*4986 TAP_TAPCELL_ROW_28_431
*4987 TAP_TAPCELL_ROW_28_432
*4988 TAP_TAPCELL_ROW_28_433
*4989 TAP_TAPCELL_ROW_28_434
*4990 TAP_TAPCELL_ROW_28_435
*4991 TAP_TAPCELL_ROW_29_436
*4992 TAP_TAPCELL_ROW_29_437
*4993 TAP_TAPCELL_ROW_29_438
*4994 TAP_TAPCELL_ROW_29_439
*4995 TAP_TAPCELL_ROW_29_440
*4996 TAP_TAPCELL_ROW_29_441
*4997 TAP_TAPCELL_ROW_29_442
*4998 TAP_TAPCELL_ROW_29_443
*4999 TAP_TAPCELL_ROW_29_444
*5000 TAP_TAPCELL_ROW_2_193
*5001 TAP_TAPCELL_ROW_2_194
*5002 TAP_TAPCELL_ROW_2_195
*5003 TAP_TAPCELL_ROW_2_196
*5004 TAP_TAPCELL_ROW_2_197
*5005 TAP_TAPCELL_ROW_2_198
*5006 TAP_TAPCELL_ROW_2_199
*5007 TAP_TAPCELL_ROW_2_200
*5008 TAP_TAPCELL_ROW_2_201
*5009 TAP_TAPCELL_ROW_30_445
*5010 TAP_TAPCELL_ROW_30_446
*5011 TAP_TAPCELL_ROW_30_447
*5012 TAP_TAPCELL_ROW_30_448
*5013 TAP_TAPCELL_ROW_30_449
*5014 TAP_TAPCELL_ROW_30_450
*5015 TAP_TAPCELL_ROW_30_451
*5016 TAP_TAPCELL_ROW_30_452
*5017 TAP_TAPCELL_ROW_30_453
*5018 TAP_TAPCELL_ROW_31_454
*5019 TAP_TAPCELL_ROW_31_455
*5020 TAP_TAPCELL_ROW_31_456
*5021 TAP_TAPCELL_ROW_31_457
*5022 TAP_TAPCELL_ROW_31_458
*5023 TAP_TAPCELL_ROW_31_459
*5024 TAP_TAPCELL_ROW_31_460
*5025 TAP_TAPCELL_ROW_31_461
*5026 TAP_TAPCELL_ROW_31_462
*5027 TAP_TAPCELL_ROW_32_463
*5028 TAP_TAPCELL_ROW_32_464
*5029 TAP_TAPCELL_ROW_32_465
*5030 TAP_TAPCELL_ROW_32_466
*5031 TAP_TAPCELL_ROW_32_467
*5032 TAP_TAPCELL_ROW_32_468
*5033 TAP_TAPCELL_ROW_32_469
*5034 TAP_TAPCELL_ROW_32_470
*5035 TAP_TAPCELL_ROW_32_471
*5036 TAP_TAPCELL_ROW_33_472
*5037 TAP_TAPCELL_ROW_33_473
*5038 TAP_TAPCELL_ROW_33_474
*5039 TAP_TAPCELL_ROW_33_475
*5040 TAP_TAPCELL_ROW_33_476
*5041 TAP_TAPCELL_ROW_33_477
*5042 TAP_TAPCELL_ROW_33_478
*5043 TAP_TAPCELL_ROW_33_479
*5044 TAP_TAPCELL_ROW_33_480
*5045 TAP_TAPCELL_ROW_34_481
*5046 TAP_TAPCELL_ROW_34_482
*5047 TAP_TAPCELL_ROW_34_483
*5048 TAP_TAPCELL_ROW_34_484
*5049 TAP_TAPCELL_ROW_34_485
*5050 TAP_TAPCELL_ROW_34_486
*5051 TAP_TAPCELL_ROW_34_487
*5052 TAP_TAPCELL_ROW_34_488
*5053 TAP_TAPCELL_ROW_34_489
*5054 TAP_TAPCELL_ROW_35_490
*5055 TAP_TAPCELL_ROW_35_491
*5056 TAP_TAPCELL_ROW_35_492
*5057 TAP_TAPCELL_ROW_35_493
*5058 TAP_TAPCELL_ROW_35_494
*5059 TAP_TAPCELL_ROW_35_495
*5060 TAP_TAPCELL_ROW_35_496
*5061 TAP_TAPCELL_ROW_35_497
*5062 TAP_TAPCELL_ROW_35_498
*5063 TAP_TAPCELL_ROW_36_499
*5064 TAP_TAPCELL_ROW_36_500
*5065 TAP_TAPCELL_ROW_36_501
*5066 TAP_TAPCELL_ROW_36_502
*5067 TAP_TAPCELL_ROW_36_503
*5068 TAP_TAPCELL_ROW_36_504
*5069 TAP_TAPCELL_ROW_36_505
*5070 TAP_TAPCELL_ROW_36_506
*5071 TAP_TAPCELL_ROW_36_507
*5072 TAP_TAPCELL_ROW_37_508
*5073 TAP_TAPCELL_ROW_37_509
*5074 TAP_TAPCELL_ROW_37_510
*5075 TAP_TAPCELL_ROW_37_511
*5076 TAP_TAPCELL_ROW_37_512
*5077 TAP_TAPCELL_ROW_37_513
*5078 TAP_TAPCELL_ROW_37_514
*5079 TAP_TAPCELL_ROW_37_515
*5080 TAP_TAPCELL_ROW_37_516
*5081 TAP_TAPCELL_ROW_38_517
*5082 TAP_TAPCELL_ROW_38_518
*5083 TAP_TAPCELL_ROW_38_519
*5084 TAP_TAPCELL_ROW_38_520
*5085 TAP_TAPCELL_ROW_38_521
*5086 TAP_TAPCELL_ROW_38_522
*5087 TAP_TAPCELL_ROW_38_523
*5088 TAP_TAPCELL_ROW_38_524
*5089 TAP_TAPCELL_ROW_38_525
*5090 TAP_TAPCELL_ROW_39_526
*5091 TAP_TAPCELL_ROW_39_527
*5092 TAP_TAPCELL_ROW_39_528
*5093 TAP_TAPCELL_ROW_39_529
*5094 TAP_TAPCELL_ROW_39_530
*5095 TAP_TAPCELL_ROW_39_531
*5096 TAP_TAPCELL_ROW_39_532
*5097 TAP_TAPCELL_ROW_39_533
*5098 TAP_TAPCELL_ROW_39_534
*5099 TAP_TAPCELL_ROW_3_202
*5100 TAP_TAPCELL_ROW_3_203
*5101 TAP_TAPCELL_ROW_3_204
*5102 TAP_TAPCELL_ROW_3_205
*5103 TAP_TAPCELL_ROW_3_206
*5104 TAP_TAPCELL_ROW_3_207
*5105 TAP_TAPCELL_ROW_3_208
*5106 TAP_TAPCELL_ROW_3_209
*5107 TAP_TAPCELL_ROW_3_210
*5108 TAP_TAPCELL_ROW_40_535
*5109 TAP_TAPCELL_ROW_40_536
*5110 TAP_TAPCELL_ROW_40_537
*5111 TAP_TAPCELL_ROW_40_538
*5112 TAP_TAPCELL_ROW_40_539
*5113 TAP_TAPCELL_ROW_40_540
*5114 TAP_TAPCELL_ROW_40_541
*5115 TAP_TAPCELL_ROW_40_542
*5116 TAP_TAPCELL_ROW_40_543
*5117 TAP_TAPCELL_ROW_41_544
*5118 TAP_TAPCELL_ROW_41_545
*5119 TAP_TAPCELL_ROW_41_546
*5120 TAP_TAPCELL_ROW_41_547
*5121 TAP_TAPCELL_ROW_41_548
*5122 TAP_TAPCELL_ROW_41_549
*5123 TAP_TAPCELL_ROW_41_550
*5124 TAP_TAPCELL_ROW_41_551
*5125 TAP_TAPCELL_ROW_41_552
*5126 TAP_TAPCELL_ROW_42_553
*5127 TAP_TAPCELL_ROW_42_554
*5128 TAP_TAPCELL_ROW_42_555
*5129 TAP_TAPCELL_ROW_42_556
*5130 TAP_TAPCELL_ROW_42_557
*5131 TAP_TAPCELL_ROW_42_558
*5132 TAP_TAPCELL_ROW_42_559
*5133 TAP_TAPCELL_ROW_42_560
*5134 TAP_TAPCELL_ROW_42_561
*5135 TAP_TAPCELL_ROW_43_562
*5136 TAP_TAPCELL_ROW_43_563
*5137 TAP_TAPCELL_ROW_43_564
*5138 TAP_TAPCELL_ROW_43_565
*5139 TAP_TAPCELL_ROW_43_566
*5140 TAP_TAPCELL_ROW_43_567
*5141 TAP_TAPCELL_ROW_43_568
*5142 TAP_TAPCELL_ROW_43_569
*5143 TAP_TAPCELL_ROW_43_570
*5144 TAP_TAPCELL_ROW_44_571
*5145 TAP_TAPCELL_ROW_44_572
*5146 TAP_TAPCELL_ROW_44_573
*5147 TAP_TAPCELL_ROW_44_574
*5148 TAP_TAPCELL_ROW_44_575
*5149 TAP_TAPCELL_ROW_44_576
*5150 TAP_TAPCELL_ROW_44_577
*5151 TAP_TAPCELL_ROW_44_578
*5152 TAP_TAPCELL_ROW_44_579
*5153 TAP_TAPCELL_ROW_45_580
*5154 TAP_TAPCELL_ROW_45_581
*5155 TAP_TAPCELL_ROW_45_582
*5156 TAP_TAPCELL_ROW_45_583
*5157 TAP_TAPCELL_ROW_45_584
*5158 TAP_TAPCELL_ROW_45_585
*5159 TAP_TAPCELL_ROW_45_586
*5160 TAP_TAPCELL_ROW_45_587
*5161 TAP_TAPCELL_ROW_45_588
*5162 TAP_TAPCELL_ROW_46_589
*5163 TAP_TAPCELL_ROW_46_590
*5164 TAP_TAPCELL_ROW_46_591
*5165 TAP_TAPCELL_ROW_46_592
*5166 TAP_TAPCELL_ROW_46_593
*5167 TAP_TAPCELL_ROW_46_594
*5168 TAP_TAPCELL_ROW_46_595
*5169 TAP_TAPCELL_ROW_46_596
*5170 TAP_TAPCELL_ROW_46_597
*5171 TAP_TAPCELL_ROW_47_598
*5172 TAP_TAPCELL_ROW_47_599
*5173 TAP_TAPCELL_ROW_47_600
*5174 TAP_TAPCELL_ROW_47_601
*5175 TAP_TAPCELL_ROW_47_602
*5176 TAP_TAPCELL_ROW_47_603
*5177 TAP_TAPCELL_ROW_47_604
*5178 TAP_TAPCELL_ROW_47_605
*5179 TAP_TAPCELL_ROW_47_606
*5180 TAP_TAPCELL_ROW_48_607
*5181 TAP_TAPCELL_ROW_48_608
*5182 TAP_TAPCELL_ROW_48_609
*5183 TAP_TAPCELL_ROW_48_610
*5184 TAP_TAPCELL_ROW_48_611
*5185 TAP_TAPCELL_ROW_48_612
*5186 TAP_TAPCELL_ROW_48_613
*5187 TAP_TAPCELL_ROW_48_614
*5188 TAP_TAPCELL_ROW_48_615
*5189 TAP_TAPCELL_ROW_49_616
*5190 TAP_TAPCELL_ROW_49_617
*5191 TAP_TAPCELL_ROW_49_618
*5192 TAP_TAPCELL_ROW_49_619
*5193 TAP_TAPCELL_ROW_49_620
*5194 TAP_TAPCELL_ROW_49_621
*5195 TAP_TAPCELL_ROW_49_622
*5196 TAP_TAPCELL_ROW_49_623
*5197 TAP_TAPCELL_ROW_49_624
*5198 TAP_TAPCELL_ROW_4_211
*5199 TAP_TAPCELL_ROW_4_212
*5200 TAP_TAPCELL_ROW_4_213
*5201 TAP_TAPCELL_ROW_4_214
*5202 TAP_TAPCELL_ROW_4_215
*5203 TAP_TAPCELL_ROW_4_216
*5204 TAP_TAPCELL_ROW_4_217
*5205 TAP_TAPCELL_ROW_4_218
*5206 TAP_TAPCELL_ROW_4_219
*5207 TAP_TAPCELL_ROW_50_625
*5208 TAP_TAPCELL_ROW_50_626
*5209 TAP_TAPCELL_ROW_50_627
*5210 TAP_TAPCELL_ROW_50_628
*5211 TAP_TAPCELL_ROW_50_629
*5212 TAP_TAPCELL_ROW_50_630
*5213 TAP_TAPCELL_ROW_50_631
*5214 TAP_TAPCELL_ROW_50_632
*5215 TAP_TAPCELL_ROW_50_633
*5216 TAP_TAPCELL_ROW_51_634
*5217 TAP_TAPCELL_ROW_51_635
*5218 TAP_TAPCELL_ROW_51_636
*5219 TAP_TAPCELL_ROW_51_637
*5220 TAP_TAPCELL_ROW_51_638
*5221 TAP_TAPCELL_ROW_51_639
*5222 TAP_TAPCELL_ROW_51_640
*5223 TAP_TAPCELL_ROW_51_641
*5224 TAP_TAPCELL_ROW_51_642
*5225 TAP_TAPCELL_ROW_52_643
*5226 TAP_TAPCELL_ROW_52_644
*5227 TAP_TAPCELL_ROW_52_645
*5228 TAP_TAPCELL_ROW_52_646
*5229 TAP_TAPCELL_ROW_52_647
*5230 TAP_TAPCELL_ROW_52_648
*5231 TAP_TAPCELL_ROW_52_649
*5232 TAP_TAPCELL_ROW_52_650
*5233 TAP_TAPCELL_ROW_52_651
*5234 TAP_TAPCELL_ROW_53_652
*5235 TAP_TAPCELL_ROW_53_653
*5236 TAP_TAPCELL_ROW_53_654
*5237 TAP_TAPCELL_ROW_53_655
*5238 TAP_TAPCELL_ROW_53_656
*5239 TAP_TAPCELL_ROW_53_657
*5240 TAP_TAPCELL_ROW_53_658
*5241 TAP_TAPCELL_ROW_53_659
*5242 TAP_TAPCELL_ROW_53_660
*5243 TAP_TAPCELL_ROW_54_661
*5244 TAP_TAPCELL_ROW_54_662
*5245 TAP_TAPCELL_ROW_54_663
*5246 TAP_TAPCELL_ROW_54_664
*5247 TAP_TAPCELL_ROW_54_665
*5248 TAP_TAPCELL_ROW_54_666
*5249 TAP_TAPCELL_ROW_54_667
*5250 TAP_TAPCELL_ROW_54_668
*5251 TAP_TAPCELL_ROW_54_669
*5252 TAP_TAPCELL_ROW_55_670
*5253 TAP_TAPCELL_ROW_55_671
*5254 TAP_TAPCELL_ROW_55_672
*5255 TAP_TAPCELL_ROW_55_673
*5256 TAP_TAPCELL_ROW_55_674
*5257 TAP_TAPCELL_ROW_55_675
*5258 TAP_TAPCELL_ROW_55_676
*5259 TAP_TAPCELL_ROW_55_677
*5260 TAP_TAPCELL_ROW_55_678
*5261 TAP_TAPCELL_ROW_56_679
*5262 TAP_TAPCELL_ROW_56_680
*5263 TAP_TAPCELL_ROW_56_681
*5264 TAP_TAPCELL_ROW_56_682
*5265 TAP_TAPCELL_ROW_56_683
*5266 TAP_TAPCELL_ROW_56_684
*5267 TAP_TAPCELL_ROW_56_685
*5268 TAP_TAPCELL_ROW_56_686
*5269 TAP_TAPCELL_ROW_56_687
*5270 TAP_TAPCELL_ROW_57_688
*5271 TAP_TAPCELL_ROW_57_689
*5272 TAP_TAPCELL_ROW_57_690
*5273 TAP_TAPCELL_ROW_57_691
*5274 TAP_TAPCELL_ROW_57_692
*5275 TAP_TAPCELL_ROW_57_693
*5276 TAP_TAPCELL_ROW_57_694
*5277 TAP_TAPCELL_ROW_57_695
*5278 TAP_TAPCELL_ROW_57_696
*5279 TAP_TAPCELL_ROW_58_697
*5280 TAP_TAPCELL_ROW_58_698
*5281 TAP_TAPCELL_ROW_58_699
*5282 TAP_TAPCELL_ROW_58_700
*5283 TAP_TAPCELL_ROW_58_701
*5284 TAP_TAPCELL_ROW_58_702
*5285 TAP_TAPCELL_ROW_58_703
*5286 TAP_TAPCELL_ROW_58_704
*5287 TAP_TAPCELL_ROW_58_705
*5288 TAP_TAPCELL_ROW_59_706
*5289 TAP_TAPCELL_ROW_59_707
*5290 TAP_TAPCELL_ROW_59_708
*5291 TAP_TAPCELL_ROW_59_709
*5292 TAP_TAPCELL_ROW_59_710
*5293 TAP_TAPCELL_ROW_59_711
*5294 TAP_TAPCELL_ROW_59_712
*5295 TAP_TAPCELL_ROW_59_713
*5296 TAP_TAPCELL_ROW_59_714
*5297 TAP_TAPCELL_ROW_5_220
*5298 TAP_TAPCELL_ROW_5_221
*5299 TAP_TAPCELL_ROW_5_222
*5300 TAP_TAPCELL_ROW_5_223
*5301 TAP_TAPCELL_ROW_5_224
*5302 TAP_TAPCELL_ROW_5_225
*5303 TAP_TAPCELL_ROW_5_226
*5304 TAP_TAPCELL_ROW_5_227
*5305 TAP_TAPCELL_ROW_5_228
*5306 TAP_TAPCELL_ROW_60_715
*5307 TAP_TAPCELL_ROW_60_716
*5308 TAP_TAPCELL_ROW_60_717
*5309 TAP_TAPCELL_ROW_60_718
*5310 TAP_TAPCELL_ROW_60_719
*5311 TAP_TAPCELL_ROW_60_720
*5312 TAP_TAPCELL_ROW_60_721
*5313 TAP_TAPCELL_ROW_60_722
*5314 TAP_TAPCELL_ROW_60_723
*5315 TAP_TAPCELL_ROW_61_724
*5316 TAP_TAPCELL_ROW_61_725
*5317 TAP_TAPCELL_ROW_61_726
*5318 TAP_TAPCELL_ROW_61_727
*5319 TAP_TAPCELL_ROW_61_728
*5320 TAP_TAPCELL_ROW_61_729
*5321 TAP_TAPCELL_ROW_61_730
*5322 TAP_TAPCELL_ROW_61_731
*5323 TAP_TAPCELL_ROW_61_732
*5324 TAP_TAPCELL_ROW_62_733
*5325 TAP_TAPCELL_ROW_62_734
*5326 TAP_TAPCELL_ROW_62_735
*5327 TAP_TAPCELL_ROW_62_736
*5328 TAP_TAPCELL_ROW_62_737
*5329 TAP_TAPCELL_ROW_62_738
*5330 TAP_TAPCELL_ROW_62_739
*5331 TAP_TAPCELL_ROW_62_740
*5332 TAP_TAPCELL_ROW_62_741
*5333 TAP_TAPCELL_ROW_63_742
*5334 TAP_TAPCELL_ROW_63_743
*5335 TAP_TAPCELL_ROW_63_744
*5336 TAP_TAPCELL_ROW_63_745
*5337 TAP_TAPCELL_ROW_63_746
*5338 TAP_TAPCELL_ROW_63_747
*5339 TAP_TAPCELL_ROW_63_748
*5340 TAP_TAPCELL_ROW_63_749
*5341 TAP_TAPCELL_ROW_63_750
*5342 TAP_TAPCELL_ROW_64_751
*5343 TAP_TAPCELL_ROW_64_752
*5344 TAP_TAPCELL_ROW_64_753
*5345 TAP_TAPCELL_ROW_64_754
*5346 TAP_TAPCELL_ROW_64_755
*5347 TAP_TAPCELL_ROW_64_756
*5348 TAP_TAPCELL_ROW_64_757
*5349 TAP_TAPCELL_ROW_64_758
*5350 TAP_TAPCELL_ROW_64_759
*5351 TAP_TAPCELL_ROW_65_760
*5352 TAP_TAPCELL_ROW_65_761
*5353 TAP_TAPCELL_ROW_65_762
*5354 TAP_TAPCELL_ROW_65_763
*5355 TAP_TAPCELL_ROW_65_764
*5356 TAP_TAPCELL_ROW_65_765
*5357 TAP_TAPCELL_ROW_65_766
*5358 TAP_TAPCELL_ROW_65_767
*5359 TAP_TAPCELL_ROW_65_768
*5360 TAP_TAPCELL_ROW_66_769
*5361 TAP_TAPCELL_ROW_66_770
*5362 TAP_TAPCELL_ROW_66_771
*5363 TAP_TAPCELL_ROW_66_772
*5364 TAP_TAPCELL_ROW_66_773
*5365 TAP_TAPCELL_ROW_66_774
*5366 TAP_TAPCELL_ROW_66_775
*5367 TAP_TAPCELL_ROW_66_776
*5368 TAP_TAPCELL_ROW_66_777
*5369 TAP_TAPCELL_ROW_67_778
*5370 TAP_TAPCELL_ROW_67_779
*5371 TAP_TAPCELL_ROW_67_780
*5372 TAP_TAPCELL_ROW_67_781
*5373 TAP_TAPCELL_ROW_67_782
*5374 TAP_TAPCELL_ROW_67_783
*5375 TAP_TAPCELL_ROW_67_784
*5376 TAP_TAPCELL_ROW_67_785
*5377 TAP_TAPCELL_ROW_67_786
*5378 TAP_TAPCELL_ROW_68_787
*5379 TAP_TAPCELL_ROW_68_788
*5380 TAP_TAPCELL_ROW_68_789
*5381 TAP_TAPCELL_ROW_68_790
*5382 TAP_TAPCELL_ROW_68_791
*5383 TAP_TAPCELL_ROW_68_792
*5384 TAP_TAPCELL_ROW_68_793
*5385 TAP_TAPCELL_ROW_68_794
*5386 TAP_TAPCELL_ROW_68_795
*5387 TAP_TAPCELL_ROW_69_796
*5388 TAP_TAPCELL_ROW_69_797
*5389 TAP_TAPCELL_ROW_69_798
*5390 TAP_TAPCELL_ROW_69_799
*5391 TAP_TAPCELL_ROW_69_800
*5392 TAP_TAPCELL_ROW_69_801
*5393 TAP_TAPCELL_ROW_69_802
*5394 TAP_TAPCELL_ROW_69_803
*5395 TAP_TAPCELL_ROW_69_804
*5396 TAP_TAPCELL_ROW_6_229
*5397 TAP_TAPCELL_ROW_6_230
*5398 TAP_TAPCELL_ROW_6_231
*5399 TAP_TAPCELL_ROW_6_232
*5400 TAP_TAPCELL_ROW_6_233
*5401 TAP_TAPCELL_ROW_6_234
*5402 TAP_TAPCELL_ROW_6_235
*5403 TAP_TAPCELL_ROW_6_236
*5404 TAP_TAPCELL_ROW_6_237
*5405 TAP_TAPCELL_ROW_70_805
*5406 TAP_TAPCELL_ROW_70_806
*5407 TAP_TAPCELL_ROW_70_807
*5408 TAP_TAPCELL_ROW_70_808
*5409 TAP_TAPCELL_ROW_70_809
*5410 TAP_TAPCELL_ROW_70_810
*5411 TAP_TAPCELL_ROW_70_811
*5412 TAP_TAPCELL_ROW_70_812
*5413 TAP_TAPCELL_ROW_70_813
*5414 TAP_TAPCELL_ROW_71_814
*5415 TAP_TAPCELL_ROW_71_815
*5416 TAP_TAPCELL_ROW_71_816
*5417 TAP_TAPCELL_ROW_71_817
*5418 TAP_TAPCELL_ROW_71_818
*5419 TAP_TAPCELL_ROW_71_819
*5420 TAP_TAPCELL_ROW_71_820
*5421 TAP_TAPCELL_ROW_71_821
*5422 TAP_TAPCELL_ROW_71_822
*5423 TAP_TAPCELL_ROW_72_823
*5424 TAP_TAPCELL_ROW_72_824
*5425 TAP_TAPCELL_ROW_72_825
*5426 TAP_TAPCELL_ROW_72_826
*5427 TAP_TAPCELL_ROW_72_827
*5428 TAP_TAPCELL_ROW_72_828
*5429 TAP_TAPCELL_ROW_72_829
*5430 TAP_TAPCELL_ROW_72_830
*5431 TAP_TAPCELL_ROW_72_831
*5432 TAP_TAPCELL_ROW_73_832
*5433 TAP_TAPCELL_ROW_73_833
*5434 TAP_TAPCELL_ROW_73_834
*5435 TAP_TAPCELL_ROW_73_835
*5436 TAP_TAPCELL_ROW_73_836
*5437 TAP_TAPCELL_ROW_73_837
*5438 TAP_TAPCELL_ROW_73_838
*5439 TAP_TAPCELL_ROW_73_839
*5440 TAP_TAPCELL_ROW_73_840
*5441 TAP_TAPCELL_ROW_74_841
*5442 TAP_TAPCELL_ROW_74_842
*5443 TAP_TAPCELL_ROW_74_843
*5444 TAP_TAPCELL_ROW_74_844
*5445 TAP_TAPCELL_ROW_74_845
*5446 TAP_TAPCELL_ROW_74_846
*5447 TAP_TAPCELL_ROW_74_847
*5448 TAP_TAPCELL_ROW_74_848
*5449 TAP_TAPCELL_ROW_74_849
*5450 TAP_TAPCELL_ROW_75_850
*5451 TAP_TAPCELL_ROW_75_851
*5452 TAP_TAPCELL_ROW_75_852
*5453 TAP_TAPCELL_ROW_75_853
*5454 TAP_TAPCELL_ROW_75_854
*5455 TAP_TAPCELL_ROW_75_855
*5456 TAP_TAPCELL_ROW_75_856
*5457 TAP_TAPCELL_ROW_75_857
*5458 TAP_TAPCELL_ROW_75_858
*5459 TAP_TAPCELL_ROW_76_859
*5460 TAP_TAPCELL_ROW_76_860
*5461 TAP_TAPCELL_ROW_76_861
*5462 TAP_TAPCELL_ROW_76_862
*5463 TAP_TAPCELL_ROW_76_863
*5464 TAP_TAPCELL_ROW_76_864
*5465 TAP_TAPCELL_ROW_76_865
*5466 TAP_TAPCELL_ROW_76_866
*5467 TAP_TAPCELL_ROW_76_867
*5468 TAP_TAPCELL_ROW_77_868
*5469 TAP_TAPCELL_ROW_77_869
*5470 TAP_TAPCELL_ROW_77_870
*5471 TAP_TAPCELL_ROW_77_871
*5472 TAP_TAPCELL_ROW_77_872
*5473 TAP_TAPCELL_ROW_77_873
*5474 TAP_TAPCELL_ROW_77_874
*5475 TAP_TAPCELL_ROW_77_875
*5476 TAP_TAPCELL_ROW_77_876
*5477 TAP_TAPCELL_ROW_78_877
*5478 TAP_TAPCELL_ROW_78_878
*5479 TAP_TAPCELL_ROW_78_879
*5480 TAP_TAPCELL_ROW_78_880
*5481 TAP_TAPCELL_ROW_78_881
*5482 TAP_TAPCELL_ROW_78_882
*5483 TAP_TAPCELL_ROW_78_883
*5484 TAP_TAPCELL_ROW_78_884
*5485 TAP_TAPCELL_ROW_78_885
*5486 TAP_TAPCELL_ROW_79_886
*5487 TAP_TAPCELL_ROW_79_887
*5488 TAP_TAPCELL_ROW_79_888
*5489 TAP_TAPCELL_ROW_79_889
*5490 TAP_TAPCELL_ROW_79_890
*5491 TAP_TAPCELL_ROW_79_891
*5492 TAP_TAPCELL_ROW_79_892
*5493 TAP_TAPCELL_ROW_79_893
*5494 TAP_TAPCELL_ROW_79_894
*5495 TAP_TAPCELL_ROW_7_238
*5496 TAP_TAPCELL_ROW_7_239
*5497 TAP_TAPCELL_ROW_7_240
*5498 TAP_TAPCELL_ROW_7_241
*5499 TAP_TAPCELL_ROW_7_242
*5500 TAP_TAPCELL_ROW_7_243
*5501 TAP_TAPCELL_ROW_7_244
*5502 TAP_TAPCELL_ROW_7_245
*5503 TAP_TAPCELL_ROW_7_246
*5504 TAP_TAPCELL_ROW_80_895
*5505 TAP_TAPCELL_ROW_80_896
*5506 TAP_TAPCELL_ROW_80_897
*5507 TAP_TAPCELL_ROW_80_898
*5508 TAP_TAPCELL_ROW_80_899
*5509 TAP_TAPCELL_ROW_80_900
*5510 TAP_TAPCELL_ROW_80_901
*5511 TAP_TAPCELL_ROW_80_902
*5512 TAP_TAPCELL_ROW_80_903
*5513 TAP_TAPCELL_ROW_81_904
*5514 TAP_TAPCELL_ROW_81_905
*5515 TAP_TAPCELL_ROW_81_906
*5516 TAP_TAPCELL_ROW_81_907
*5517 TAP_TAPCELL_ROW_81_908
*5518 TAP_TAPCELL_ROW_81_909
*5519 TAP_TAPCELL_ROW_81_910
*5520 TAP_TAPCELL_ROW_81_911
*5521 TAP_TAPCELL_ROW_81_912
*5522 TAP_TAPCELL_ROW_82_913
*5523 TAP_TAPCELL_ROW_82_914
*5524 TAP_TAPCELL_ROW_82_915
*5525 TAP_TAPCELL_ROW_82_916
*5526 TAP_TAPCELL_ROW_82_917
*5527 TAP_TAPCELL_ROW_82_918
*5528 TAP_TAPCELL_ROW_82_919
*5529 TAP_TAPCELL_ROW_82_920
*5530 TAP_TAPCELL_ROW_82_921
*5531 TAP_TAPCELL_ROW_82_922
*5532 TAP_TAPCELL_ROW_82_923
*5533 TAP_TAPCELL_ROW_82_924
*5534 TAP_TAPCELL_ROW_82_925
*5535 TAP_TAPCELL_ROW_82_926
*5536 TAP_TAPCELL_ROW_82_927
*5537 TAP_TAPCELL_ROW_82_928
*5538 TAP_TAPCELL_ROW_82_929
*5539 TAP_TAPCELL_ROW_82_930
*5540 TAP_TAPCELL_ROW_8_247
*5541 TAP_TAPCELL_ROW_8_248
*5542 TAP_TAPCELL_ROW_8_249
*5543 TAP_TAPCELL_ROW_8_250
*5544 TAP_TAPCELL_ROW_8_251
*5545 TAP_TAPCELL_ROW_8_252
*5546 TAP_TAPCELL_ROW_8_253
*5547 TAP_TAPCELL_ROW_8_254
*5548 TAP_TAPCELL_ROW_8_255
*5549 TAP_TAPCELL_ROW_9_256
*5550 TAP_TAPCELL_ROW_9_257
*5551 TAP_TAPCELL_ROW_9_258
*5552 TAP_TAPCELL_ROW_9_259
*5553 TAP_TAPCELL_ROW_9_260
*5554 TAP_TAPCELL_ROW_9_261
*5555 TAP_TAPCELL_ROW_9_262
*5556 TAP_TAPCELL_ROW_9_263
*5557 TAP_TAPCELL_ROW_9_264
*5558 five_1
*5559 five_10
*5560 five_11
*5561 five_12
*5562 five_13
*5563 five_14
*5564 five_15
*5565 five_16
*5566 five_17
*5567 five_18
*5568 five_19
*5569 five_2
*5570 five_20
*5571 five_21
*5572 five_22
*5573 five_23
*5574 five_24
*5575 five_25
*5576 five_26
*5577 five_27
*5578 five_28
*5579 five_29
*5580 five_3
*5581 five_30
*5582 five_31
*5583 five_32
*5584 five_33
*5585 five_34
*5586 five_35
*5587 five_36
*5588 five_37
*5589 five_38
*5590 five_39
*5591 five_4
*5592 five_40
*5593 five_41
*5594 five_42
*5595 five_43
*5596 five_5
*5597 five_6
*5598 five_7
*5599 five_8
*5600 five_9

*PORTS
an[0] O
an[1] O
an[2] O
an[3] O
clk I
control I
reset I
result[0] O
result[10] O
result[11] O
result[12] O
result[13] O
result[14] O
result[15] O
result[16] O
result[17] O
result[18] O
result[19] O
result[1] O
result[20] O
result[21] O
result[22] O
result[23] O
result[24] O
result[25] O
result[26] O
result[27] O
result[28] O
result[29] O
result[2] O
result[30] O
result[31] O
result[3] O
result[4] O
result[5] O
result[6] O
result[7] O
result[8] O
result[9] O
seg_out[0] O
seg_out[1] O
seg_out[2] O
seg_out[3] O
seg_out[4] O
seg_out[5] O
seg_out[6] O

*D_NET *3 0.000563768
*CONN
*P an[0] O
*I *5581:LO O *D sky130_fd_sc_hd__conb_1
*CAP
1 an[0] 0.000281884
2 *5581:LO 0.000281884
*RES
1 *5581:LO an[0] 20.4803 
*END

*D_NET *4 0.000555558
*CONN
*P an[1] O
*I *5582:LO O *D sky130_fd_sc_hd__conb_1
*CAP
1 an[1] 0.000277779
2 *5582:LO 0.000277779
*RES
1 *5582:LO an[1] 20.4803 
*END

*D_NET *5 0.000563768
*CONN
*P an[2] O
*I *5583:LO O *D sky130_fd_sc_hd__conb_1
*CAP
1 an[2] 0.000281884
2 *5583:LO 0.000281884
*RES
1 *5583:LO an[2] 20.4803 
*END

*D_NET *6 0.000555558
*CONN
*P an[3] O
*I *5584:LO O *D sky130_fd_sc_hd__conb_1
*CAP
1 an[3] 0.000277779
2 *5584:LO 0.000277779
*RES
1 *5584:LO an[3] 20.4803 
*END

*D_NET *10 0.000986492
*CONN
*P result[0] O
*I *5593:HI O *D sky130_fd_sc_hd__conb_1
*CAP
1 result[0] 0.000493246
2 *5593:HI 0.000493246
3 result[0] result[1] 0
*RES
1 *5593:HI result[0] 20.9825 
*END

*D_NET *11 0.000540905
*CONN
*P result[10] O
*I *5599:LO O *D sky130_fd_sc_hd__conb_1
*CAP
1 result[10] 0.000270452
2 *5599:LO 0.000270452
3 result[10] result[11] 0
4 result[10] result[9] 0
*RES
1 *5599:LO result[10] 18.8021 
*END

*D_NET *12 0.000631733
*CONN
*P result[11] O
*I *5600:LO O *D sky130_fd_sc_hd__conb_1
*CAP
1 result[11] 0.000315866
2 *5600:LO 0.000315866
3 result[11] result[12] 0
4 result[10] result[11] 0
*RES
1 *5600:LO result[11] 19.4092 
*END

*D_NET *13 0.000488585
*CONN
*P result[12] O
*I *5559:LO O *D sky130_fd_sc_hd__conb_1
*CAP
1 result[12] 0.000244293
2 *5559:LO 0.000244293
3 result[12] result[13] 0
4 result[11] result[12] 0
*RES
1 *5559:LO result[12] 18.1949 
*END

*D_NET *14 0.00106691
*CONN
*P result[13] O
*I *5560:LO O *D sky130_fd_sc_hd__conb_1
*CAP
1 result[13] 0.000533454
2 *5560:LO 0.000533454
3 result[13] result[14] 0
4 result[12] result[13] 0
*RES
1 *5560:LO result[13] 22.1968 
*END

*D_NET *15 0.000548804
*CONN
*P result[14] O
*I *5561:LO O *D sky130_fd_sc_hd__conb_1
*CAP
1 result[14] 0.000274402
2 *5561:LO 0.000274402
3 result[14] result[15] 0
4 result[13] result[14] 0
*RES
1 *5561:LO result[14] 18.8021 
*END

*D_NET *16 0.000641103
*CONN
*P result[15] O
*I *5562:LO O *D sky130_fd_sc_hd__conb_1
*CAP
1 result[15] 0.000320552
2 *5562:LO 0.000320552
3 result[15] result[16] 0
4 result[14] result[15] 0
*RES
1 *5562:LO result[15] 19.4092 
*END

*D_NET *17 0.000482607
*CONN
*P result[16] O
*I *5563:LO O *D sky130_fd_sc_hd__conb_1
*CAP
1 result[16] 0.000241303
2 *5563:LO 0.000241303
3 result[16] result[17] 0
4 result[15] result[16] 0
*RES
1 *5563:LO result[16] 18.1949 
*END

*D_NET *18 0.000686182
*CONN
*P result[17] O
*I *5564:LO O *D sky130_fd_sc_hd__conb_1
*CAP
1 result[17] 0.000343091
2 *5564:LO 0.000343091
3 result[17] result[18] 0
4 result[16] result[17] 0
*RES
1 *5564:LO result[17] 20.0163 
*END

*D_NET *19 0.000552103
*CONN
*P result[18] O
*I *5565:LO O *D sky130_fd_sc_hd__conb_1
*CAP
1 result[18] 0.000276051
2 *5565:LO 0.000276051
3 result[18] result[19] 0
4 result[17] result[18] 0
*RES
1 *5565:LO result[18] 18.8021 
*END

*D_NET *20 0.000636375
*CONN
*P result[19] O
*I *5566:LO O *D sky130_fd_sc_hd__conb_1
*CAP
1 result[19] 0.000318188
2 *5566:LO 0.000318188
3 result[19] result[20] 0
4 result[18] result[19] 0
*RES
1 *5566:LO result[19] 19.4092 
*END

*D_NET *21 0.00102928
*CONN
*P result[1] O
*I *5594:HI O *D sky130_fd_sc_hd__conb_1
*CAP
1 result[1] 0.00051464
2 *5594:HI 0.00051464
3 result[1] result[2] 0
4 result[0] result[1] 0
*RES
1 *5594:HI result[1] 20.9825 
*END

*D_NET *22 0.000482183
*CONN
*P result[20] O
*I *5567:LO O *D sky130_fd_sc_hd__conb_1
*CAP
1 result[20] 0.000241091
2 *5567:LO 0.000241091
3 result[20] result[21] 0
4 result[19] result[20] 0
*RES
1 *5567:LO result[20] 18.1949 
*END

*D_NET *23 0.000683269
*CONN
*P result[21] O
*I *5568:LO O *D sky130_fd_sc_hd__conb_1
*CAP
1 result[21] 0.000341635
2 *5568:LO 0.000341635
3 result[21] result[22] 0
4 result[20] result[21] 0
*RES
1 *5568:LO result[21] 20.0163 
*END

*D_NET *24 0.000552103
*CONN
*P result[22] O
*I *5570:LO O *D sky130_fd_sc_hd__conb_1
*CAP
1 result[22] 0.000276051
2 *5570:LO 0.000276051
3 result[22] result[23] 0
4 result[21] result[22] 0
*RES
1 *5570:LO result[22] 18.8021 
*END

*D_NET *25 0.000627335
*CONN
*P result[23] O
*I *5571:LO O *D sky130_fd_sc_hd__conb_1
*CAP
1 result[23] 0.000313667
2 *5571:LO 0.000313667
3 result[23] result[24] 0
4 result[22] result[23] 0
*RES
1 *5571:LO result[23] 19.4092 
*END

*D_NET *26 0.000479121
*CONN
*P result[24] O
*I *5572:LO O *D sky130_fd_sc_hd__conb_1
*CAP
1 result[24] 0.00023956
2 *5572:LO 0.00023956
3 result[24] result[25] 0
4 result[23] result[24] 0
*RES
1 *5572:LO result[24] 18.1949 
*END

*D_NET *27 0.000688308
*CONN
*P result[25] O
*I *5573:LO O *D sky130_fd_sc_hd__conb_1
*CAP
1 result[25] 0.000344154
2 *5573:LO 0.000344154
3 result[25] result[26] 0
4 result[24] result[25] 0
*RES
1 *5573:LO result[25] 20.0163 
*END

*D_NET *28 0.000558269
*CONN
*P result[26] O
*I *5574:LO O *D sky130_fd_sc_hd__conb_1
*CAP
1 result[26] 0.000279134
2 *5574:LO 0.000279134
3 result[26] result[27] 0
4 result[25] result[26] 0
*RES
1 *5574:LO result[26] 18.8021 
*END

*D_NET *29 0.000633077
*CONN
*P result[27] O
*I *5575:LO O *D sky130_fd_sc_hd__conb_1
*CAP
1 result[27] 0.000316539
2 *5575:LO 0.000316539
3 result[27] result[28] 0
4 result[26] result[27] 0
*RES
1 *5575:LO result[27] 19.4092 
*END

*D_NET *30 0.000479121
*CONN
*P result[28] O
*I *5576:LO O *D sky130_fd_sc_hd__conb_1
*CAP
1 result[28] 0.00023956
2 *5576:LO 0.00023956
3 result[28] result[29] 0
4 result[27] result[28] 0
*RES
1 *5576:LO result[28] 18.1949 
*END

*D_NET *31 0.000688308
*CONN
*P result[29] O
*I *5577:LO O *D sky130_fd_sc_hd__conb_1
*CAP
1 result[29] 0.000344154
2 *5577:LO 0.000344154
3 result[29] result[30] 0
4 result[28] result[29] 0
*RES
1 *5577:LO result[29] 20.0163 
*END

*D_NET *32 0.000473142
*CONN
*P result[2] O
*I *5595:HI O *D sky130_fd_sc_hd__conb_1
*CAP
1 result[2] 0.000236571
2 *5595:HI 0.000236571
3 result[2] result[3] 0
4 result[1] result[2] 0
*RES
1 *5595:HI result[2] 18.1949 
*END

*D_NET *33 0.000544391
*CONN
*P result[30] O
*I *5578:LO O *D sky130_fd_sc_hd__conb_1
*CAP
1 result[30] 0.000272195
2 *5578:LO 0.000272195
3 result[30] result[31] 0
4 result[29] result[30] 0
*RES
1 *5578:LO result[30] 18.8021 
*END

*D_NET *34 0.000626768
*CONN
*P result[31] O
*I *5579:LO O *D sky130_fd_sc_hd__conb_1
*CAP
1 result[31] 0.000313384
2 *5579:LO 0.000313384
3 result[30] result[31] 0
*RES
1 *5579:LO result[31] 19.4092 
*END

*D_NET *35 0.00100384
*CONN
*P result[3] O
*I *5558:LO O *D sky130_fd_sc_hd__conb_1
*CAP
1 result[3] 0.000501919
2 *5558:LO 0.000501919
3 result[3] result[4] 0
4 result[2] result[3] 0
*RES
1 *5558:LO result[3] 21.2861 
*END

*D_NET *36 0.000492214
*CONN
*P result[4] O
*I *5569:LO O *D sky130_fd_sc_hd__conb_1
*CAP
1 result[4] 0.000246107
2 *5569:LO 0.000246107
3 result[4] result[5] 0
4 result[3] result[4] 0
*RES
1 *5569:LO result[4] 18.1949 
*END

*D_NET *37 0.001015
*CONN
*P result[5] O
*I *5580:LO O *D sky130_fd_sc_hd__conb_1
*CAP
1 result[5] 0.000507502
2 *5580:LO 0.000507502
3 result[5] result[6] 0
4 result[4] result[5] 0
*RES
1 *5580:LO result[5] 21.5897 
*END

*D_NET *38 0.000534926
*CONN
*P result[6] O
*I *5591:LO O *D sky130_fd_sc_hd__conb_1
*CAP
1 result[6] 0.000267463
2 *5591:LO 0.000267463
3 result[6] result[7] 0
4 result[5] result[6] 0
*RES
1 *5591:LO result[6] 18.8021 
*END

*D_NET *39 0.000691174
*CONN
*P result[7] O
*I *5596:LO O *D sky130_fd_sc_hd__conb_1
*CAP
1 result[7] 0.000345587
2 *5596:LO 0.000345587
3 result[7] result[8] 0
4 result[6] result[7] 0
*RES
1 *5596:LO result[7] 20.0163 
*END

*D_NET *40 0.000491451
*CONN
*P result[8] O
*I *5597:LO O *D sky130_fd_sc_hd__conb_1
*CAP
1 result[8] 0.000245726
2 *5597:LO 0.000245726
3 result[8] result[9] 0
4 result[7] result[8] 0
*RES
1 *5597:LO result[8] 18.1949 
*END

*D_NET *41 0.000706848
*CONN
*P result[9] O
*I *5598:LO O *D sky130_fd_sc_hd__conb_1
*CAP
1 result[9] 0.000353424
2 *5598:LO 0.000353424
3 result[10] result[9] 0
4 result[8] result[9] 0
*RES
1 *5598:LO result[9] 20.3199 
*END

*D_NET *42 0.00084331
*CONN
*P seg_out[0] O
*I *5585:LO O *D sky130_fd_sc_hd__conb_1
*CAP
1 seg_out[0] 0.000421655
2 *5585:LO 0.000421655
*RES
1 *5585:LO seg_out[0] 21.8357 
*END

*D_NET *43 0.00084331
*CONN
*P seg_out[1] O
*I *5586:LO O *D sky130_fd_sc_hd__conb_1
*CAP
1 seg_out[1] 0.000421655
2 *5586:LO 0.000421655
*RES
1 *5586:LO seg_out[1] 21.8357 
*END

*D_NET *44 0.000820002
*CONN
*P seg_out[2] O
*I *5587:LO O *D sky130_fd_sc_hd__conb_1
*CAP
1 seg_out[2] 0.000410001
2 *5587:LO 0.000410001
*RES
1 *5587:LO seg_out[2] 21.9607 
*END

*D_NET *45 0.00084331
*CONN
*P seg_out[3] O
*I *5588:LO O *D sky130_fd_sc_hd__conb_1
*CAP
1 seg_out[3] 0.000421655
2 *5588:LO 0.000421655
*RES
1 *5588:LO seg_out[3] 21.8357 
*END

*D_NET *46 0.000847438
*CONN
*P seg_out[4] O
*I *5589:LO O *D sky130_fd_sc_hd__conb_1
*CAP
1 seg_out[4] 0.000423719
2 *5589:LO 0.000423719
*RES
1 *5589:LO seg_out[4] 21.8357 
*END

*D_NET *47 0.00084331
*CONN
*P seg_out[5] O
*I *5590:LO O *D sky130_fd_sc_hd__conb_1
*CAP
1 seg_out[5] 0.000421655
2 *5590:LO 0.000421655
*RES
1 *5590:LO seg_out[5] 21.8357 
*END

*D_NET *48 0.00084331
*CONN
*P seg_out[6] O
*I *5592:LO O *D sky130_fd_sc_hd__conb_1
*CAP
1 seg_out[6] 0.000421655
2 *5592:LO 0.000421655
*RES
1 *5592:LO seg_out[6] 21.8357 
*END
